
     Program PWSCF v.7.4.1 starts on 28Jul2025 at  0: 8: 9 
        Git branch: develop
        Last git commit: c6fcc3932752aa8349da082e54d44ca9a418c6ff-dirty
        Last git commit date: Fri Jul 25 12:05:43 2025 -0500
        Last git commit subject: Sanity Checks

     This program is part of the open-source Quantum ESPRESSO suite
     for quantum simulation of materials; please cite
         "P. Giannozzi et al., J. Phys.:Condens. Matter 21 395502 (2009);
         "P. Giannozzi et al., J. Phys.:Condens. Matter 29 465901 (2017);
         "P. Giannozzi et al., J. Chem. Phys. 152 154105 (2020);
          URL http://www.quantum-espresso.org", 
     in publications or presentations arising from this work. More details at
     http://www.quantum-espresso.org/quote

     Parallel version (MPI), running on     1 processors

     MPI processes distributed on     1 nodes
     2543 MiB available memory on the printing compute node when the environment starts

     Reading input from /app/simulations/sim_20250728_000802_C5/C5.in

     Current dimensions of program PWSCF are:
     Max number of different atomic species (ntypx) = 10
     Max number of k-points (npk) =  40000
     Max angular momentum in pseudopotentials (lmaxx) =  4
     file C_3.98148.UPF: wavefunction(s)  3d renormalized

     ============================================================
     AUTOMATED PARAMETER OPTIMIZATION
     ============================================================


     Testing cutoff convergence...
     Target accuracy:  1.0000E-04 Ry
     Ecutwfc =   30.0 Ry, Energy =   -13.14492985 Ry
     Ecutwfc =   40.0 Ry, Energy =   -13.64061007 Ry, Delta =  4.9568E-01
     Ecutwfc =   50.0 Ry, Energy =   -14.04886517 Ry, Delta =  4.0826E-01
     Ecutwfc =   60.0 Ry, Energy =   -14.38233375 Ry, Delta =  3.3347E-01
     Ecutwfc =   70.0 Ry, Energy =   -14.65424129 Ry, Delta =  2.7191E-01
     Ecutwfc =   80.0 Ry, Energy =   -14.87951130 Ry, Delta =  2.2527E-01
     Ecutwfc =   90.0 Ry, Energy =   -15.06061156 Ry, Delta =  1.8110E-01
     Ecutwfc =  100.0 Ry, Energy =   -15.21182995 Ry, Delta =  1.5122E-01
     Ecutwfc =  110.0 Ry, Energy =   -15.33402845 Ry, Delta =  1.2220E-01
     Ecutwfc =  120.0 Ry, Energy =   -15.43382962 Ry, Delta =  9.9801E-02

     WARNING: Cutoff convergence not achieved
     Consider increasing cutoff_max or decreasing target_accuracy

     ============================================================


     Using optimized cutoffs:
     ecutwfc =   30.0 Ry, ecutrho =  120.0 Ry

     Configuration saved to: /root/.qe/config.ini

     Subspace diagonalization in iterative solution of the eigenvalue problem:
     a serial algorithm will be used


     G-vector sticks info
     --------------------
     sticks:   dense  smooth     PW     G-vecs:    dense   smooth      PW
     Sum         687     687    213                14983    14983    2587

     Using Slab Decomposition



     bravais-lattice index     =            0
     lattice parameter (alat)  =       7.5589  a.u.
     unit-cell volume          =     674.8334 (a.u.)^3
     number of atoms/cell      =            2
     number of atomic types    =            1
     number of electrons       =         7.96
     number of Kohn-Sham states=            8
     kinetic-energy cutoff     =      30.0000  Ry
     charge density cutoff     =     120.0000  Ry
     scf convergence threshold =      1.0E-06
     mixing beta               =       0.7000
     number of iterations used =            8  plain     mixing
     Exchange-correlation=  SLA  PZ   NOGX NOGC
                           (   1   1   0   0   0   0   0)

     celldm(1)=   7.558904  celldm(2)=   0.000000  celldm(3)=   0.000000
     celldm(4)=   0.000000  celldm(5)=   0.000000  celldm(6)=   0.000000

     crystal axes: (cart. coord. in units of alat)
               a(1) = (   1.000000   0.000000   0.000000 )  
               a(2) = (   0.000000   1.250000   0.000000 )  
               a(3) = (   0.000000   0.000000   1.250000 )  

     reciprocal axes: (cart. coord. in units 2 pi/alat)
               b(1) = (  1.000000  0.000000  0.000000 )  
               b(2) = (  0.000000  0.800000  0.000000 )  
               b(3) = (  0.000000  0.000000  0.800000 )  


     PseudoPot. # 1 for C  read from file:
     /opt/qe/pseudo/C_3.98148.UPF
     MD5 check sum: 65c7b08075d3a1a132e7e999f2747431
     Pseudo is Norm-conserving, Zval =  4.0
     Generated by new atomic code, or converted to UPF format
     Using radial grid of  461 points,  2 beta functions with: 
                l(1) =   0
                l(2) =   1

     atomic species   valence    mass     pseudopotential
     C                 3.98    12.01100     C ( 1.00)

     No symmetry found


                                    s                        frac. trans.

      isym =  1     identity                                     

 cryst.   s( 1) = (     1          0          0      )
                  (     0          1          0      )
                  (     0          0          1      )

 cart.    s( 1) = (  1.0000000  0.0000000  0.0000000 )
                  (  0.0000000  1.0000000  0.0000000 )
                  (  0.0000000  0.0000000  1.0000000 )


   Cartesian axes

     site n.     atom                  positions (alat units)
         1        C      tau(   1) = (   0.0000000   0.0000000   0.0000000  )
         2        C      tau(   2) = (   0.2500000   0.5000000   0.2500000  )

   Crystallographic axes

     site n.     atom                  positions (cryst. coord.)
         1        C      tau(   1) = (  0.0000000  0.0000000  0.0000000  )
         2        C      tau(   2) = (  0.2500000  0.4000000  0.2000000  )

     number of k points=    36  Gaussian smearing, width (Ry)=  0.0100
                       cart. coord. in units 2pi/alat
        k(    1) = (   0.0000000   0.0000000   0.0000000), wk =   0.0312500
        k(    2) = (   0.0000000   0.0000000   0.2000000), wk =   0.0625000
        k(    3) = (   0.0000000   0.0000000  -0.4000000), wk =   0.0312500
        k(    4) = (   0.0000000   0.2000000   0.2000000), wk =   0.0625000
        k(    5) = (   0.0000000   0.2000000  -0.4000000), wk =   0.0625000
        k(    6) = (   0.0000000  -0.4000000  -0.4000000), wk =   0.0312500
        k(    7) = (   0.2500000   0.0000000   0.0000000), wk =   0.0625000
        k(    8) = (   0.2500000   0.0000000   0.2000000), wk =   0.0625000
        k(    9) = (   0.2500000   0.0000000  -0.4000000), wk =   0.0625000
        k(   10) = (   0.2500000   0.2000000   0.2000000), wk =   0.0625000
        k(   11) = (   0.2500000   0.2000000  -0.4000000), wk =   0.0625000
        k(   12) = (   0.2500000  -0.4000000  -0.4000000), wk =   0.0625000
        k(   13) = (  -0.5000000   0.0000000   0.0000000), wk =   0.0312500
        k(   14) = (  -0.5000000   0.0000000   0.2000000), wk =   0.0625000
        k(   15) = (  -0.5000000   0.0000000  -0.4000000), wk =   0.0312500
        k(   16) = (  -0.5000000   0.2000000   0.2000000), wk =   0.0625000
        k(   17) = (  -0.5000000   0.2000000  -0.4000000), wk =   0.0625000
        k(   18) = (  -0.5000000  -0.4000000  -0.4000000), wk =   0.0312500
        k(   19) = (   0.0000000   0.2000000   0.0000000), wk =   0.0625000
        k(   20) = (   0.0000000  -0.4000000   0.0000000), wk =   0.0312500
        k(   21) = (   0.0000000  -0.2000000   0.2000000), wk =   0.0625000
        k(   22) = (   0.0000000  -0.4000000   0.2000000), wk =   0.0625000
        k(   23) = (  -0.2500000   0.0000000   0.2000000), wk =   0.0625000
        k(   24) = (  -0.2500000   0.2000000   0.0000000), wk =   0.0625000
        k(   25) = (  -0.2500000  -0.2000000   0.0000000), wk =   0.0625000
        k(   26) = (  -0.2500000  -0.4000000   0.0000000), wk =   0.0625000
        k(   27) = (  -0.2500000  -0.2000000   0.2000000), wk =   0.0625000
        k(   28) = (  -0.2500000   0.2000000  -0.2000000), wk =   0.0625000
        k(   29) = (   0.2500000  -0.2000000  -0.2000000), wk =   0.0625000
        k(   30) = (  -0.2500000   0.2000000   0.4000000), wk =   0.0625000
        k(   31) = (  -0.2500000  -0.4000000   0.2000000), wk =   0.0625000
        k(   32) = (  -0.2500000   0.4000000  -0.2000000), wk =   0.0625000
        k(   33) = (   0.5000000   0.2000000   0.0000000), wk =   0.0625000
        k(   34) = (   0.5000000  -0.4000000   0.0000000), wk =   0.0312500
        k(   35) = (   0.5000000  -0.2000000   0.2000000), wk =   0.0625000
        k(   36) = (   0.5000000  -0.4000000   0.2000000), wk =   0.0625000

                       cryst. coord.
        k(    1) = (   0.0000000   0.0000000   0.0000000), wk =   0.0312500
        k(    2) = (   0.0000000   0.0000000   0.2500000), wk =   0.0625000
        k(    3) = (   0.0000000   0.0000000  -0.5000000), wk =   0.0312500
        k(    4) = (   0.0000000   0.2500000   0.2500000), wk =   0.0625000
        k(    5) = (   0.0000000   0.2500000  -0.5000000), wk =   0.0625000
        k(    6) = (   0.0000000  -0.5000000  -0.5000000), wk =   0.0312500
        k(    7) = (   0.2500000   0.0000000   0.0000000), wk =   0.0625000
        k(    8) = (   0.2500000   0.0000000   0.2500000), wk =   0.0625000
        k(    9) = (   0.2500000   0.0000000  -0.5000000), wk =   0.0625000
        k(   10) = (   0.2500000   0.2500000   0.2500000), wk =   0.0625000
        k(   11) = (   0.2500000   0.2500000  -0.5000000), wk =   0.0625000
        k(   12) = (   0.2500000  -0.5000000  -0.5000000), wk =   0.0625000
        k(   13) = (  -0.5000000   0.0000000   0.0000000), wk =   0.0312500
        k(   14) = (  -0.5000000   0.0000000   0.2500000), wk =   0.0625000
        k(   15) = (  -0.5000000   0.0000000  -0.5000000), wk =   0.0312500
        k(   16) = (  -0.5000000   0.2500000   0.2500000), wk =   0.0625000
        k(   17) = (  -0.5000000   0.2500000  -0.5000000), wk =   0.0625000
        k(   18) = (  -0.5000000  -0.5000000  -0.5000000), wk =   0.0312500
        k(   19) = (   0.0000000   0.2500000   0.0000000), wk =   0.0625000
        k(   20) = (   0.0000000  -0.5000000   0.0000000), wk =   0.0312500
        k(   21) = (   0.0000000  -0.2500000   0.2500000), wk =   0.0625000
        k(   22) = (   0.0000000  -0.5000000   0.2500000), wk =   0.0625000
        k(   23) = (  -0.2500000   0.0000000   0.2500000), wk =   0.0625000
        k(   24) = (  -0.2500000   0.2500000   0.0000000), wk =   0.0625000
        k(   25) = (  -0.2500000  -0.2500000   0.0000000), wk =   0.0625000
        k(   26) = (  -0.2500000  -0.5000000   0.0000000), wk =   0.0625000
        k(   27) = (  -0.2500000  -0.2500000   0.2500000), wk =   0.0625000
        k(   28) = (  -0.2500000   0.2500000  -0.2500000), wk =   0.0625000
        k(   29) = (   0.2500000  -0.2500000  -0.2500000), wk =   0.0625000
        k(   30) = (  -0.2500000   0.2500000   0.5000000), wk =   0.0625000
        k(   31) = (  -0.2500000  -0.5000000   0.2500000), wk =   0.0625000
        k(   32) = (  -0.2500000   0.5000000  -0.2500000), wk =   0.0625000
        k(   33) = (   0.5000000   0.2500000   0.0000000), wk =   0.0625000
        k(   34) = (   0.5000000  -0.5000000   0.0000000), wk =   0.0312500
        k(   35) = (   0.5000000  -0.2500000   0.2500000), wk =   0.0625000
        k(   36) = (   0.5000000  -0.5000000   0.2500000), wk =   0.0625000

     Dense  grid:    14983 G-vectors     FFT dimensions: (  27,  36,  36)

     Dynamical RAM for                 wfc:       0.23 MB

     Dynamical RAM for     wfc (w. buffer):       8.46 MB

     Dynamical RAM for           str. fact:       0.23 MB

     Dynamical RAM for           local pot:       0.00 MB

     Dynamical RAM for          nlocal pot:       0.23 MB

     Dynamical RAM for                qrad:       0.08 MB

     Dynamical RAM for          rho,v,vnew:       1.49 MB

     Dynamical RAM for               rhoin:       0.50 MB

     Dynamical RAM for            rho*nmix:       3.66 MB

     Dynamical RAM for           G-vectors:       0.97 MB

     Dynamical RAM for          h,s,v(r/c):       0.01 MB

     Dynamical RAM for          <psi|beta>:       0.00 MB

     Dynamical RAM for                 psi:       0.46 MB

     Dynamical RAM for                hpsi:       0.46 MB

     Dynamical RAM for      wfcinit/wfcrot:       0.46 MB

     Estimated static dynamical RAM per process >      13.74 MB

     Estimated max dynamical RAM per process >      18.32 MB

     Initial potential from superposition of free atoms

     starting charge       7.9629, renormalised to       7.9630
     Starting wfcs are   18 randomized atomic wfcs

     total cpu time spent up to now is        4.3 secs

     per-process dynamical memory:    19.9 Mb

     Self-consistent Calculation

     iteration #  1     ecut=    30.00 Ry     beta= 0.70
     Davidson diagonalization with overlap

---- Real-time Memory Report at c_bands before calling an iterative solver
            70 MiB given to the printing process from OS
            19 MiB allocation reported by mallinfo(arena+hblkhd)
          2522 MiB available memory on the node where the printing process lives
------------------
     ethr =  1.00E-02,  avg # of iterations =  1.0

     Threshold (ethr) on eigenvalues was too large:
     Diagonalizing with lowered threshold

     Davidson diagonalization with overlap

---- Real-time Memory Report at c_bands before calling an iterative solver
            70 MiB given to the printing process from OS
            20 MiB allocation reported by mallinfo(arena+hblkhd)
          2519 MiB available memory on the node where the printing process lives
------------------
     ethr =  4.96E-04,  avg # of iterations =  1.1

     total cpu time spent up to now is       12.1 secs

     total energy              =     -21.41411398 Ry
     estimated scf accuracy    <       0.03996836 Ry

     iteration #  2     ecut=    30.00 Ry     beta= 0.70
     Davidson diagonalization with overlap

---- Real-time Memory Report at c_bands before calling an iterative solver
            70 MiB given to the printing process from OS
            24 MiB allocation reported by mallinfo(arena+hblkhd)
          2514 MiB available memory on the node where the printing process lives
------------------
     ethr =  5.02E-04,  avg # of iterations =  1.0

     total cpu time spent up to now is       16.1 secs

     total energy              =     -21.41730319 Ry
     estimated scf accuracy    <       0.00115392 Ry

     iteration #  3     ecut=    30.00 Ry     beta= 0.70
     Davidson diagonalization with overlap

---- Real-time Memory Report at c_bands before calling an iterative solver
            70 MiB given to the printing process from OS
            24 MiB allocation reported by mallinfo(arena+hblkhd)
          2516 MiB available memory on the node where the printing process lives
------------------
     ethr =  1.45E-05,  avg # of iterations =  2.0

     total cpu time spent up to now is       19.5 secs

     total energy              =     -21.41747324 Ry
     estimated scf accuracy    <       0.00024035 Ry

     iteration #  4     ecut=    30.00 Ry     beta= 0.70
     Davidson diagonalization with overlap

---- Real-time Memory Report at c_bands before calling an iterative solver
            70 MiB given to the printing process from OS
            25 MiB allocation reported by mallinfo(arena+hblkhd)
          2516 MiB available memory on the node where the printing process lives
------------------
     ethr =  3.02E-06,  avg # of iterations =  2.0

     total cpu time spent up to now is       21.9 secs

     total energy              =     -21.41708121 Ry
     estimated scf accuracy    <       0.00855644 Ry

     iteration #  5     ecut=    30.00 Ry     beta= 0.70
     Davidson diagonalization with overlap

---- Real-time Memory Report at c_bands before calling an iterative solver
            70 MiB given to the printing process from OS
            25 MiB allocation reported by mallinfo(arena+hblkhd)
          2516 MiB available memory on the node where the printing process lives
------------------
     ethr =  3.02E-06,  avg # of iterations =  1.6

     total cpu time spent up to now is       25.7 secs

     total energy              =     -21.41759285 Ry
     estimated scf accuracy    <       0.00001166 Ry

     iteration #  6     ecut=    30.00 Ry     beta= 0.70
     Davidson diagonalization with overlap

---- Real-time Memory Report at c_bands before calling an iterative solver
            70 MiB given to the printing process from OS
            26 MiB allocation reported by mallinfo(arena+hblkhd)
          2514 MiB available memory on the node where the printing process lives
------------------
     ethr =  1.46E-07,  avg # of iterations =  1.4

     total cpu time spent up to now is       32.4 secs

     End of self-consistent calculation

          k = 0.0000 0.0000 0.0000 (  1905 PWs)   bands (ev):

   -12.6495 -10.7354  -4.5365  -3.6569  -3.1329  -3.0615  -2.7630  -0.9597

     occupation numbers 
     1.0000   1.0000   1.0000   0.0295   0.0000   0.0000   0.0000   0.0000

          k = 0.0000 0.0000 0.2000 (  1884 PWs)   bands (ev):

   -12.6273 -10.7471  -4.5110  -3.8979  -3.0828  -3.0516  -2.7392  -1.0007

     occupation numbers 
     1.0000   1.0000   1.0000   0.7315   0.0000   0.0000   0.0000   0.0000

          k = 0.0000 0.0000-0.4000 (  1888 PWs)   bands (ev):

   -12.6045 -10.7596  -4.4901  -4.0936  -3.0690  -3.0506  -2.7253  -1.0585

     occupation numbers 
     1.0000   1.0000   1.0000   0.9960   0.0000   0.0000   0.0000   0.0000

          k = 0.0000 0.2000 0.2000 (  1878 PWs)   bands (ev):

   -12.5203 -10.9250  -4.4378  -3.8671  -3.2903  -2.7850  -2.6688  -1.1884

     occupation numbers 
     1.0000   1.0000   1.0000   0.6169   0.0000   0.0000   0.0000   0.0000

          k = 0.0000 0.2000-0.4000 (  1880 PWs)   bands (ev):

   -12.5009 -10.9262  -4.5571  -3.9297  -3.3082  -2.7969  -2.6709  -1.0994

     occupation numbers 
     1.0000   1.0000   1.0000   0.8283   0.0000   0.0000   0.0000   0.0000

          k = 0.0000-0.4000-0.4000 (  1856 PWs)   bands (ev):

   -12.3727 -11.1159  -4.3174  -4.2399  -3.2337  -2.8652  -2.3823  -1.1622

     occupation numbers 
     1.0000   1.0000   1.0000   1.0000   0.0000   0.0000   0.0000   0.0000

          k = 0.2500 0.0000 0.0000 (  1861 PWs)   bands (ev):

   -12.5288 -10.7435  -4.4502  -3.9245  -3.4567  -3.1033  -2.6853  -1.0590

     occupation numbers 
     1.0000   1.0000   1.0000   0.8142   0.0000   0.0000   0.0000   0.0000

          k = 0.2500 0.0000 0.2000 (  1865 PWs)   bands (ev):

   -12.5079 -10.7541  -4.4284  -3.9816  -3.5907  -3.1004  -2.6479  -1.1088

     occupation numbers 
     1.0000   1.0000   1.0000   0.9316   0.0050   0.0000   0.0000   0.0000

          k = 0.2500 0.0000-0.4000 (  1878 PWs)   bands (ev):

   -12.4886 -10.7602  -4.4294  -4.1074  -3.6022  -3.1357  -2.6250  -1.1153

     occupation numbers 
     1.0000   1.0000   1.0000   0.9974   0.0070   0.0000   0.0000   0.0000

          k = 0.2500 0.2000 0.2000 (  1868 PWs)   bands (ev):

   -12.4043 -10.9155  -4.3867  -3.9065  -3.8263  -2.7689  -2.6793  -1.2143

     occupation numbers 
     1.0000   1.0000   1.0000   0.7602   0.4495   0.0000   0.0000   0.0000

          k = 0.2500 0.2000-0.4000 (  1872 PWs)   bands (ev):

   -12.3880 -10.9133  -4.4511  -3.9721  -3.8478  -2.8034  -2.6860  -1.1525

     occupation numbers 
     1.0000   1.0000   1.0000   0.9176   0.5385   0.0000   0.0000   0.0000

          k = 0.2500-0.4000-0.4000 (  1892 PWs)   bands (ev):

   -12.2723 -11.0731  -4.3212  -4.2365  -3.8261  -2.9666  -2.3519  -1.1295

     occupation numbers 
     1.0000   1.0000   1.0000   1.0000   0.4486   0.0000   0.0000   0.0000

          k =-0.5000 0.0000 0.0000 (  1854 PWs)   bands (ev):

   -12.3939 -10.7653  -4.3795  -4.3674  -3.3973  -3.1832  -2.7294  -1.1632

     occupation numbers 
     1.0000   1.0000   1.0000   1.0000   0.0000   0.0000   0.0000   0.0000

          k =-0.5000 0.0000 0.2000 (  1866 PWs)   bands (ev):

   -12.3769 -10.7690  -4.4003  -4.3511  -3.5265  -3.2220  -2.6839  -1.1759

     occupation numbers 
     1.0000   1.0000   1.0000   1.0000   0.0006   0.0000   0.0000   0.0000

          k =-0.5000 0.0000-0.4000 (  1860 PWs)   bands (ev):

   -12.3595 -10.7730  -4.3939  -4.3617  -3.6076  -3.2609  -2.6539  -1.1846

     occupation numbers 
     1.0000   1.0000   1.0000   1.0000   0.0082   0.0000   0.0000   0.0000

          k =-0.5000 0.2000 0.2000 (  1870 PWs)   bands (ev):

   -12.2855 -10.8957  -4.6064  -4.1608  -3.7885  -2.8314  -2.7406  -1.1428

     occupation numbers 
     1.0000   1.0000   1.0000   0.9996   0.3015   0.0000   0.0000   0.0000

          k =-0.5000 0.2000-0.4000 (  1884 PWs)   bands (ev):

   -12.2706 -10.8940  -4.5710  -4.2194  -3.8837  -2.8387  -2.7636  -1.1514

     occupation numbers 
     1.0000   1.0000   1.0000   1.0000   0.6809   0.0000   0.0000   0.0000

          k =-0.5000-0.4000-0.4000 (  1872 PWs)   bands (ev):

   -12.1629 -11.0339  -4.4469  -4.4342  -3.8966  -3.0483  -2.3790  -1.1079

     occupation numbers 
     1.0000   1.0000   1.0000   1.0000   0.7272   0.0000   0.0000   0.0000

          k = 0.0000 0.2000 0.0000 (  1884 PWs)   bands (ev):

   -12.5417 -10.9179  -4.4236  -3.6832  -3.2776  -2.8125  -2.7056  -1.1464

     occupation numbers 
     1.0000   1.0000   1.0000   0.0532   0.0000   0.0000   0.0000   0.0000

          k = 0.0000-0.4000 0.0000 (  1888 PWs)   bands (ev):

   -12.4074 -11.1243  -4.1053  -4.0291  -3.2374  -2.8416  -2.4765  -1.2970

     occupation numbers 
     1.0000   1.0000   0.9972   0.9762   0.0000   0.0000   0.0000   0.0000

          k = 0.0000-0.2000 0.2000 (  1878 PWs)   bands (ev):

   -12.5228 -10.9185  -4.5257  -3.7806  -3.3015  -2.8064  -2.7014  -1.0484

     occupation numbers 
     1.0000   1.0000   1.0000   0.2736   0.0000   0.0000   0.0000   0.0000

          k = 0.0000-0.4000 0.2000 (  1880 PWs)   bands (ev):

   -12.3902 -11.1200  -4.2123  -4.1455  -3.2472  -2.8483  -2.4201  -1.2356

     occupation numbers 
     1.0000   1.0000   0.9999   0.9993   0.0000   0.0000   0.0000   0.0000

          k =-0.2500 0.0000 0.2000 (  1865 PWs)   bands (ev):

   -12.5099 -10.7491  -4.4516  -4.0147  -3.5366  -3.1228  -2.6452  -1.0621

     occupation numbers 
     1.0000   1.0000   1.0000   0.9665   0.0009   0.0000   0.0000   0.0000

          k =-0.2500 0.2000 0.0000 (  1865 PWs)   bands (ev):

   -12.4316 -10.8928  -4.5243  -3.7933  -3.6602  -2.8313  -2.7285  -1.0304

     occupation numbers 
     1.0000   1.0000   1.0000   0.3191   0.0319   0.0000   0.0000   0.0000

          k =-0.2500-0.2000 0.0000 (  1865 PWs)   bands (ev):

   -12.4243 -10.9095  -4.3709  -3.9120  -3.6712  -2.8181  -2.6620  -1.2132

     occupation numbers 
     1.0000   1.0000   1.0000   0.7775   0.0410   0.0000   0.0000   0.0000

          k =-0.2500-0.4000 0.0000 (  1878 PWs)   bands (ev):

   -12.3036 -11.0814  -4.2636  -4.1270  -3.6507  -2.9311  -2.3670  -1.1922

     occupation numbers 
     1.0000   1.0000   1.0000   0.9986   0.0254   0.0000   0.0000   0.0000

          k =-0.2500-0.2000 0.2000 (  1868 PWs)   bands (ev):

   -12.4083 -10.9069  -4.4223  -3.9502  -3.7578  -2.8264  -2.6773  -1.1427

     occupation numbers 
     1.0000   1.0000   1.0000   0.8771   0.2007   0.0000   0.0000   0.0000

          k =-0.2500 0.2000-0.2000 (  1868 PWs)   bands (ev):

   -12.4135 -10.8946  -4.5452  -3.8659  -3.7500  -2.8084  -2.7235  -1.0234

     occupation numbers 
     1.0000   1.0000   1.0000   0.6119   0.1787   0.0000   0.0000   0.0000

          k = 0.2500-0.2000-0.2000 (  1868 PWs)   bands (ev):

   -12.4131 -10.8965  -4.4888  -3.9234  -3.7420  -2.7862  -2.7334  -1.0891

     occupation numbers 
     1.0000   1.0000   1.0000   0.8113   0.1580   0.0000   0.0000   0.0000

          k =-0.2500 0.2000 0.4000 (  1872 PWs)   bands (ev):

   -12.3947 -10.8986  -4.5195  -4.0194  -3.7759  -2.7839  -2.7282  -1.0797

     occupation numbers 
     1.0000   1.0000   1.0000   0.9700   0.2576   0.0000   0.0000   0.0000

          k =-0.2500-0.4000 0.2000 (  1872 PWs)   bands (ev):

   -12.2887 -11.0763  -4.2589  -4.1627  -3.7796  -2.9534  -2.3649  -1.1720

     occupation numbers 
     1.0000   1.0000   1.0000   0.9996   0.2703   0.0000   0.0000   0.0000

          k =-0.2500 0.4000-0.2000 (  1872 PWs)   bands (ev):

   -12.2874 -11.0780  -4.3140  -4.1693  -3.7386  -2.9312  -2.3426  -1.1361

     occupation numbers 
     1.0000   1.0000   1.0000   0.9997   0.1495   0.0000   0.0000   0.0000

          k = 0.5000 0.2000 0.0000 (  1866 PWs)   bands (ev):

   -12.3019 -10.8940  -4.6343  -4.1447  -3.6562  -2.8507  -2.7172  -1.1333

     occupation numbers 
     1.0000   1.0000   1.0000   0.9993   0.0291   0.0000   0.0000   0.0000

          k = 0.5000-0.4000 0.0000 (  1860 PWs)   bands (ev):

   -12.1901 -11.0427  -4.5186  -4.4077  -3.6338  -2.9869  -2.3510  -1.1141

     occupation numbers 
     1.0000   1.0000   1.0000   1.0000   0.0167   0.0000   0.0000   0.0000

          k = 0.5000-0.2000 0.2000 (  1870 PWs)   bands (ev):

   -12.2873 -10.8920  -4.5975  -4.1946  -3.7753  -2.8451  -2.7338  -1.1387

     occupation numbers 
     1.0000   1.0000   1.0000   0.9999   0.2554   0.0000   0.0000   0.0000

          k = 0.5000-0.4000 0.2000 (  1884 PWs)   bands (ev):

   -12.1767 -11.0384  -4.4881  -4.4240  -3.7730  -3.0218  -2.3730  -1.1167

     occupation numbers 
     1.0000   1.0000   1.0000   1.0000   0.2478   0.0000   0.0000   0.0000

     the Fermi energy is    -3.8385 ev

!    total energy              =     -21.41759402 Ry
     estimated scf accuracy    <       0.00000009 Ry
     smearing contrib. (-TS)   =      -0.00386351 Ry
     internal energy E=F+TS    =     -21.41373050 Ry

     The total energy is F=E-TS. E is the sum of the following terms:
     one-electron contribution =     -10.84528885 Ry
     hartree contribution      =       6.62732551 Ry
     xc contribution           =      -5.41855191 Ry
     ewald contribution        =     -11.77721525 Ry

     convergence has been achieved in   6 iterations

     Forces acting on atoms (cartesian axes, Ry/au):

     atom    1 type  1   force =     0.05074469    0.09241066    0.05996684
     atom    2 type  1   force =    -0.05074469   -0.09241066   -0.05996684
     The non-local contrib.  to forces
     atom    1 type  1   force =     0.15504692    0.26755357    0.19274561
     atom    2 type  1   force =    -0.15495391   -0.26748584   -0.19258868
     The ionic contribution  to forces
     atom    1 type  1   force =    -0.33110685   -0.61795257   -0.56864992
     atom    2 type  1   force =     0.33110685    0.61795257    0.56864992
     The local contribution  to forces
     atom    1 type  1   force =     0.22685473    0.44275204    0.43592510
     atom    2 type  1   force =    -0.22690683   -0.44276993   -0.43606677
     The core correction contribution to forces
     atom    1 type  1   force =     0.00000000    0.00000000    0.00000000
     atom    2 type  1   force =     0.00000000    0.00000000    0.00000000
     The Hubbard contrib.    to forces
     atom    1 type  1   force =     0.00000000    0.00000000    0.00000000
     atom    2 type  1   force =     0.00000000    0.00000000    0.00000000
     The SCF correction term to forces
     atom    1 type  1   force =    -0.00002670    0.00008109   -0.00001511
     atom    2 type  1   force =     0.00003261   -0.00008398    0.00007752

     Total force =     0.171527     Total SCF correction =     0.000147


     Computing stress (Cartesian axis) and pressure

          total   stress  (Ry/bohr**3)                   (kbar)     P=      -98.97
  -0.00054783  -0.00021770  -0.00014400          -80.59      -32.02      -21.18
  -0.00021770  -0.00106620  -0.00026174          -32.02     -156.84      -38.50
  -0.00014400  -0.00026174  -0.00040432          -21.18      -38.50      -59.48

     kinetic stress (kbar)   1583.77     75.34     19.04
                               75.34   1694.14     83.63
                               19.04     83.63   1567.30

     local   stress (kbar)  -1494.92   -328.20   -220.73
                             -328.20  -2256.31   -437.82
                             -220.73   -437.82   -183.12

     nonloc. stress (kbar)    344.49    -25.59     -9.03
                              -25.59    301.26    -28.79
                               -9.03    -28.79    352.10

     hartree stress (kbar)    595.49     88.61     69.15
                               88.61    821.08    130.33
                               69.15    130.33     28.10

     exc-cor stress (kbar)   -361.00      0.00      0.00
                                0.00   -361.00      0.00
                                0.00      0.00   -361.00

     corecor stress (kbar)      0.00      0.00      0.00
                                0.00      0.00      0.00
                                0.00      0.00      0.00

     ewald   stress (kbar)   -748.42    157.82    120.39
                              157.82   -356.02    214.15
                              120.39    214.15  -1462.85

     hubbard stress (kbar)      0.00      0.00      0.00
                                0.00      0.00      0.00
                                0.00      0.00      0.00

     DFT-D   stress (kbar)      0.00      0.00      0.00
                                0.00      0.00      0.00
                                0.00      0.00      0.00

     XDM     stress (kbar)      0.00      0.00      0.00
                                0.00      0.00      0.00
                                0.00      0.00      0.00

     dft-nl  stress (kbar)      0.00      0.00      0.00
                                0.00      0.00      0.00
                                0.00      0.00      0.00

     TS-vdW  stress (kbar)      0.00      0.00      0.00
                                0.00      0.00      0.00
                                0.00      0.00      0.00

     MDB     stress (kbar)      0.00      0.00      0.00
                                0.00      0.00      0.00
                                0.00      0.00      0.00

     3D-RISM stress (kbar)      0.00      0.00      0.00
                                0.00      0.00      0.00
                                0.00      0.00      0.00


     Writing all to output data dir /app/simulations/sim_20250728_000802_C5/out/C5.save/ :
     XML data file, charge density, pseudopotentials, collected wavefunctions

     ==================================================
     AUTO_OPTIMIZE SUMMARY:
     Using ecutwfc =   30.0 Ry, ecutrho =  120.0 Ry
     ==================================================


     init_run     :      4.66s CPU      3.91s WALL (       1 calls)
     electrons    :     34.93s CPU     28.10s WALL (       1 calls)
     forces       :      0.24s CPU      0.27s WALL (       1 calls)
     stress       :      0.79s CPU      0.56s WALL (       1 calls)

     Called by init_run:
     wfcinit      :      4.28s CPU      3.52s WALL (       1 calls)
     wfcinit:atom :      0.08s CPU      0.04s WALL (      36 calls)
     wfcinit:wfcr :      3.97s CPU      3.32s WALL (      36 calls)
     potinit      :      0.02s CPU      0.02s WALL (       1 calls)
     hinit0       :      0.35s CPU      0.35s WALL (       1 calls)

     Called by electrons:
     c_bands      :     33.00s CPU     26.64s WALL (       7 calls)
     sum_band     :      1.84s CPU      1.32s WALL (       7 calls)
     v_of_rho     :      0.02s CPU      0.02s WALL (       7 calls)
     v_h          :      0.01s CPU      0.01s WALL (       7 calls)
     v_xc         :      0.02s CPU      0.02s WALL (       7 calls)
     mix_rho      :      0.02s CPU      0.02s WALL (       7 calls)

     Called by c_bands:
     init_us_2    :      0.45s CPU      0.30s WALL (     612 calls)
     cegterg      :     29.88s CPU     23.27s WALL (     252 calls)

     Called by sum_band:
     sum_band:wei :      0.01s CPU      0.01s WALL (       7 calls)
     sum_band:loo :      1.80s CPU      1.27s WALL (       7 calls)
     sum_band:buf :      0.04s CPU      0.03s WALL (     252 calls)
     sum_band:ini :      0.15s CPU      0.10s WALL (     252 calls)

     Called by *egterg:
     cdiaghg      :      0.26s CPU      0.18s WALL (     579 calls)
     cegterg:over :      4.56s CPU      4.38s WALL (     363 calls)
     cegterg:upda :      2.09s CPU      1.88s WALL (     363 calls)
     cegterg:last :      1.78s CPU      1.72s WALL (     363 calls)
     h_psi        :     22.56s CPU     15.64s WALL (     651 calls)
     g_psi        :      0.07s CPU      0.04s WALL (     363 calls)

     Called by h_psi:
     h_psi:calbec :      4.10s CPU      4.06s WALL (     651 calls)
     vloc_psi     :     15.80s CPU      9.25s WALL (     651 calls)
                                        0.00s GPU  (     651 calls)
     add_vuspsi   :      2.52s CPU      2.23s WALL (     651 calls)

     General routines
     calbec       :      4.50s CPU      4.47s WALL (    1263 calls)
     fft          :      0.26s CPU      0.26s WALL (      26 calls)
     ffts         :      0.01s CPU      0.01s WALL (       7 calls)
     fftw         :     15.31s CPU      9.16s WALL (   11924 calls)

     Parallel routines

     PWSCF        :     40.84s CPU     34.12s WALL


   This run was terminated on:   0: 8:43  28Jul2025            

=------------------------------------------------------------------------------=
   JOB DONE.
=------------------------------------------------------------------------------=
