
     Program PWSCF v.7.4.1 starts on 27Jul2025 at 23:53:47 
        Git branch: develop
        Last git commit: c6fcc3932752aa8349da082e54d44ca9a418c6ff-dirty
        Last git commit date: Fri Jul 25 12:05:43 2025 -0500
        Last git commit subject: Sanity Checks

     This program is part of the open-source Quantum ESPRESSO suite
     for quantum simulation of materials; please cite
         "P. Giannozzi et al., J. Phys.:Condens. Matter 21 395502 (2009);
         "P. Giannozzi et al., J. Phys.:Condens. Matter 29 465901 (2017);
         "P. Giannozzi et al., J. Chem. Phys. 152 154105 (2020);
          URL http://www.quantum-espresso.org", 
     in publications or presentations arising from this work. More details at
     http://www.quantum-espresso.org/quote

     Parallel version (MPI), running on     1 processors

     MPI processes distributed on     1 nodes
     2810 MiB available memory on the printing compute node when the environment starts

     Reading input from /app/simulations/sim_20250727_235345_C5/C5.in

     Current dimensions of program PWSCF are:
     Max number of different atomic species (ntypx) = 10
     Max number of k-points (npk) =  40000
     Max angular momentum in pseudopotentials (lmaxx) =  4
     file C.UPF: wavefunction(s)  3d renormalized

     ============================================================
     AUTOMATED PARAMETER OPTIMIZATION
     ============================================================


     Testing cutoff convergence...
     Target accuracy:  1.0000E-04 Ry
     Ecutwfc =   30.0 Ry, Energy =   -13.14492985 Ry
     Ecutwfc =   40.0 Ry, Energy =   -13.64061007 Ry, Delta =  4.9568E-01
     Ecutwfc =   50.0 Ry, Energy =   -14.04886517 Ry, Delta =  4.0826E-01
     Ecutwfc =   60.0 Ry, Energy =   -14.38233375 Ry, Delta =  3.3347E-01
     Ecutwfc =   70.0 Ry, Energy =   -14.65424129 Ry, Delta =  2.7191E-01
     Ecutwfc =   80.0 Ry, Energy =   -14.87951130 Ry, Delta =  2.2527E-01
     Ecutwfc =   90.0 Ry, Energy =   -15.06061156 Ry, Delta =  1.8110E-01
     Ecutwfc =  100.0 Ry, Energy =   -15.21182995 Ry, Delta =  1.5122E-01
     Ecutwfc =  110.0 Ry, Energy =   -15.33402845 Ry, Delta =  1.2220E-01
     Ecutwfc =  120.0 Ry, Energy =   -15.43382962 Ry, Delta =  9.9801E-02

     WARNING: Cutoff convergence not achieved
     Consider increasing cutoff_max or decreasing target_accuracy

     ============================================================


     Using optimized cutoffs:
     ecutwfc =   30.0 Ry, ecutrho =  120.0 Ry
     Message from routine setup:
     using ibrav=0 with symmetry is DISCOURAGED, use correct ibrav instead

     Configuration saved to: /root/.qe/config.ini

     Subspace diagonalization in iterative solution of the eigenvalue problem:
     a serial algorithm will be used


     G-vector sticks info
     --------------------
     sticks:   dense  smooth     PW     G-vecs:    dense   smooth      PW
     Sum         853     853    261                18805    18805    3119

     Using Slab Decomposition



     bravais-lattice index     =            0
     lattice parameter (alat)  =       9.4486  a.u.
     unit-cell volume          =     843.5418 (a.u.)^3
     number of atoms/cell      =            2
     number of atomic types    =            1
     number of electrons       =         8.00
     number of Kohn-Sham states=            8
     kinetic-energy cutoff     =      30.0000  Ry
     charge density cutoff     =     120.0000  Ry
     scf convergence threshold =      1.0E-06
     mixing beta               =       0.7000
     number of iterations used =            8  plain     mixing
     Exchange-correlation=  SLA  PZ   NOGX NOGC
                           (   1   1   0   0   0   0   0)

     celldm(1)=   9.448631  celldm(2)=   0.000000  celldm(3)=   0.000000
     celldm(4)=   0.000000  celldm(5)=   0.000000  celldm(6)=   0.000000

     crystal axes: (cart. coord. in units of alat)
               a(1) = (   1.000000   0.000000   0.000000 )  
               a(2) = (   0.000000   1.000000   0.000000 )  
               a(3) = (   0.000000   0.000000   1.000000 )  

     reciprocal axes: (cart. coord. in units 2 pi/alat)
               b(1) = (  1.000000  0.000000  0.000000 )  
               b(2) = (  0.000000  1.000000  0.000000 )  
               b(3) = (  0.000000  0.000000  1.000000 )  


     PseudoPot. # 1 for C  read from file:
     /opt/qe/pseudo/C.UPF
     MD5 check sum: 2c7381bf144020b9e2c6aa7a5554b9ab
     Pseudo is Norm-conserving, Zval =  4.0
     Generated by new atomic code, or converted to UPF format
     Using radial grid of  461 points,  2 beta functions with: 
                l(1) =   0
                l(2) =   1

     atomic species   valence    mass     pseudopotential
     C                 4.00    12.01100     C ( 1.00)

      6 Sym. Ops. (no inversion) found


                                    s                        frac. trans.

      isym =  1     identity                                     

 cryst.   s( 1) = (     1          0          0      )
                  (     0          1          0      )
                  (     0          0          1      )

 cart.    s( 1) = (  1.0000000  0.0000000  0.0000000 )
                  (  0.0000000  1.0000000  0.0000000 )
                  (  0.0000000  0.0000000  1.0000000 )


      isym =  2     120 deg rotation - cart. axis [-1,-1,-1]     

 cryst.   s( 2) = (     0          0          1      )
                  (     1          0          0      )
                  (     0          1          0      )

 cart.    s( 2) = (  0.0000000  1.0000000  0.0000000 )
                  (  0.0000000  0.0000000  1.0000000 )
                  (  1.0000000  0.0000000  0.0000000 )


      isym =  3     120 deg rotation - cart. axis [1,1,1]        

 cryst.   s( 3) = (     0          1          0      )
                  (     0          0          1      )
                  (     1          0          0      )

 cart.    s( 3) = (  0.0000000  0.0000000  1.0000000 )
                  (  1.0000000  0.0000000  0.0000000 )
                  (  0.0000000  1.0000000  0.0000000 )


      isym =  4     inv. 180 deg rotation - cart. axis [1,-1,0]  

 cryst.   s( 4) = (     0          1          0      )
                  (     1          0          0      )
                  (     0          0          1      )

 cart.    s( 4) = (  0.0000000  1.0000000  0.0000000 )
                  (  1.0000000  0.0000000  0.0000000 )
                  (  0.0000000  0.0000000  1.0000000 )


      isym =  5     inv. 180 deg rotation - cart. axis [-1,0,1]  

 cryst.   s( 5) = (     0          0          1      )
                  (     0          1          0      )
                  (     1          0          0      )

 cart.    s( 5) = (  0.0000000  0.0000000  1.0000000 )
                  (  0.0000000  1.0000000  0.0000000 )
                  (  1.0000000  0.0000000  0.0000000 )


      isym =  6     inv. 180 deg rotation - cart. axis [0,1,-1]  

 cryst.   s( 6) = (     1          0          0      )
                  (     0          0          1      )
                  (     0          1          0      )

 cart.    s( 6) = (  1.0000000  0.0000000  0.0000000 )
                  (  0.0000000  0.0000000  1.0000000 )
                  (  0.0000000  1.0000000  0.0000000 )


   Cartesian axes

     site n.     atom                  positions (alat units)
         1        C      tau(   1) = (   0.2000000   0.2000000   0.2000000  )
         2        C      tau(   2) = (   0.4000000   0.4000000   0.4000000  )

   Crystallographic axes

     site n.     atom                  positions (cryst. coord.)
         1        C      tau(   1) = (  0.2000000  0.2000000  0.2000000  )
         2        C      tau(   2) = (  0.4000000  0.4000000  0.4000000  )

     number of k points=    13  Gaussian smearing, width (Ry)=  0.0100
                       cart. coord. in units 2pi/alat
        k(    1) = (   0.0000000   0.0000000   0.0000000), wk =   0.0312500
        k(    2) = (   0.0000000   0.0000000   0.2500000), wk =   0.1875000
        k(    3) = (   0.0000000   0.0000000  -0.5000000), wk =   0.0937500
        k(    4) = (   0.0000000   0.2500000   0.2500000), wk =   0.1875000
        k(    5) = (   0.0000000   0.2500000  -0.5000000), wk =   0.3750000
        k(    6) = (   0.0000000  -0.5000000  -0.5000000), wk =   0.0937500
        k(    7) = (   0.2500000   0.2500000   0.2500000), wk =   0.0625000
        k(    8) = (   0.2500000   0.2500000  -0.5000000), wk =   0.1875000
        k(    9) = (   0.2500000  -0.5000000  -0.5000000), wk =   0.1875000
        k(   10) = (  -0.5000000  -0.5000000  -0.5000000), wk =   0.0312500
        k(   11) = (  -0.2500000   0.0000000   0.2500000), wk =   0.1875000
        k(   12) = (   0.2500000  -0.2500000   0.2500000), wk =   0.1875000
        k(   13) = (   0.2500000  -0.2500000  -0.5000000), wk =   0.1875000

                       cryst. coord.
        k(    1) = (   0.0000000   0.0000000   0.0000000), wk =   0.0312500
        k(    2) = (   0.0000000   0.0000000   0.2500000), wk =   0.1875000
        k(    3) = (   0.0000000   0.0000000  -0.5000000), wk =   0.0937500
        k(    4) = (   0.0000000   0.2500000   0.2500000), wk =   0.1875000
        k(    5) = (   0.0000000   0.2500000  -0.5000000), wk =   0.3750000
        k(    6) = (   0.0000000  -0.5000000  -0.5000000), wk =   0.0937500
        k(    7) = (   0.2500000   0.2500000   0.2500000), wk =   0.0625000
        k(    8) = (   0.2500000   0.2500000  -0.5000000), wk =   0.1875000
        k(    9) = (   0.2500000  -0.5000000  -0.5000000), wk =   0.1875000
        k(   10) = (  -0.5000000  -0.5000000  -0.5000000), wk =   0.0312500
        k(   11) = (  -0.2500000   0.0000000   0.2500000), wk =   0.1875000
        k(   12) = (   0.2500000  -0.2500000   0.2500000), wk =   0.1875000
        k(   13) = (   0.2500000  -0.2500000  -0.5000000), wk =   0.1875000

     Dense  grid:    18805 G-vectors     FFT dimensions: (  36,  36,  36)

     Dynamical RAM for                 wfc:       0.29 MB

     Dynamical RAM for     wfc (w. buffer):       4.00 MB

     Dynamical RAM for           str. fact:       0.29 MB

     Dynamical RAM for           local pot:       0.00 MB

     Dynamical RAM for          nlocal pot:       0.29 MB

     Dynamical RAM for                qrad:       0.08 MB

     Dynamical RAM for          rho,v,vnew:       1.93 MB

     Dynamical RAM for               rhoin:       0.64 MB

     Dynamical RAM for            rho*nmix:       4.59 MB

     Dynamical RAM for           G-vectors:       1.22 MB

     Dynamical RAM for          h,s,v(r/c):       0.01 MB

     Dynamical RAM for          <psi|beta>:       0.00 MB

     Dynamical RAM for                 psi:       0.57 MB

     Dynamical RAM for                hpsi:       0.57 MB

     Dynamical RAM for      wfcinit/wfcrot:       0.57 MB

     Estimated static dynamical RAM per process >      10.79 MB

     Estimated max dynamical RAM per process >      16.54 MB

     Initial potential from superposition of free atoms

     starting charge       7.9999, renormalised to       8.0000
     Starting wfcs are   18 randomized atomic wfcs

     total cpu time spent up to now is        1.2 secs

     per-process dynamical memory:    17.9 Mb

     Self-consistent Calculation

     iteration #  1     ecut=    30.00 Ry     beta= 0.70
     Davidson diagonalization with overlap

---- Real-time Memory Report at c_bands before calling an iterative solver
            69 MiB given to the printing process from OS
            18 MiB allocation reported by mallinfo(arena+hblkhd)
          2790 MiB available memory on the node where the printing process lives
------------------
     ethr =  1.00E-02,  avg # of iterations =  4.4

     Threshold (ethr) on eigenvalues was too large:
     Diagonalizing with lowered threshold

     Davidson diagonalization with overlap

---- Real-time Memory Report at c_bands before calling an iterative solver
            69 MiB given to the printing process from OS
            18 MiB allocation reported by mallinfo(arena+hblkhd)
          2789 MiB available memory on the node where the printing process lives
------------------
     ethr =  8.91E-04,  avg # of iterations =  1.0

     total cpu time spent up to now is        4.3 secs

     total energy              =     -21.83741486 Ry
     estimated scf accuracy    <       0.06924637 Ry

     iteration #  2     ecut=    30.00 Ry     beta= 0.70
     Davidson diagonalization with overlap

---- Real-time Memory Report at c_bands before calling an iterative solver
            69 MiB given to the printing process from OS
            23 MiB allocation reported by mallinfo(arena+hblkhd)
          2781 MiB available memory on the node where the printing process lives
------------------
     ethr =  8.66E-04,  avg # of iterations =  1.0

     total cpu time spent up to now is        7.1 secs

     total energy              =     -21.83697294 Ry
     estimated scf accuracy    <       0.03338959 Ry

     iteration #  3     ecut=    30.00 Ry     beta= 0.70
     Davidson diagonalization with overlap

---- Real-time Memory Report at c_bands before calling an iterative solver
            69 MiB given to the printing process from OS
            24 MiB allocation reported by mallinfo(arena+hblkhd)
          2781 MiB available memory on the node where the printing process lives
------------------
     ethr =  4.17E-04,  avg # of iterations =  1.0

     total cpu time spent up to now is        8.7 secs

     total energy              =     -21.84470999 Ry
     estimated scf accuracy    <       0.01049462 Ry

     iteration #  4     ecut=    30.00 Ry     beta= 0.70
     Davidson diagonalization with overlap

---- Real-time Memory Report at c_bands before calling an iterative solver
            69 MiB given to the printing process from OS
            24 MiB allocation reported by mallinfo(arena+hblkhd)
          2780 MiB available memory on the node where the printing process lives
------------------
     ethr =  1.31E-04,  avg # of iterations =  1.0

     total cpu time spent up to now is       10.0 secs

     total energy              =     -21.84568996 Ry
     estimated scf accuracy    <       0.00004067 Ry

     iteration #  5     ecut=    30.00 Ry     beta= 0.70
     Davidson diagonalization with overlap

---- Real-time Memory Report at c_bands before calling an iterative solver
            69 MiB given to the printing process from OS
            25 MiB allocation reported by mallinfo(arena+hblkhd)
          2780 MiB available memory on the node where the printing process lives
------------------
     ethr =  5.08E-07,  avg # of iterations =  5.3

     total cpu time spent up to now is       11.3 secs

     total energy              =     -21.84569970 Ry
     estimated scf accuracy    <       0.00000653 Ry

     iteration #  6     ecut=    30.00 Ry     beta= 0.70
     Davidson diagonalization with overlap

---- Real-time Memory Report at c_bands before calling an iterative solver
            69 MiB given to the printing process from OS
            26 MiB allocation reported by mallinfo(arena+hblkhd)
          2779 MiB available memory on the node where the printing process lives
------------------
     ethr =  8.16E-08,  avg # of iterations =  1.5

     total cpu time spent up to now is       11.9 secs

     total energy              =     -21.84570011 Ry
     estimated scf accuracy    <       0.00000436 Ry

     iteration #  7     ecut=    30.00 Ry     beta= 0.70
     Davidson diagonalization with overlap

---- Real-time Memory Report at c_bands before calling an iterative solver
            69 MiB given to the printing process from OS
            26 MiB allocation reported by mallinfo(arena+hblkhd)
          2779 MiB available memory on the node where the printing process lives
------------------
     ethr =  5.45E-08,  avg # of iterations =  1.0

     total cpu time spent up to now is       12.8 secs

     End of self-consistent calculation

          k = 0.0000 0.0000 0.0000 (  2325 PWs)   bands (ev):

   -15.5494  -9.8703  -5.5729  -5.1429  -5.1429  -2.1413  -2.1413   0.9583

     occupation numbers 
     1.0000   1.0000   0.9987   0.0730   0.0730   0.0000   0.0000   0.0000

          k = 0.0000 0.0000 0.2500 (  2324 PWs)   bands (ev):

   -15.5387  -9.9024  -5.5505  -5.2571  -5.1267  -2.1399  -1.9886   1.1878

     occupation numbers 
     1.0000   1.0000   0.9973   0.3950   0.0524   0.0000   0.0000   0.0000

          k = 0.0000 0.0000-0.5000 (  2360 PWs)   bands (ev):

   -15.5299  -9.9361  -5.4708  -5.4482  -5.1235  -2.1492  -1.8724   1.6591

     occupation numbers 
     1.0000   1.0000   0.9747   0.9573   0.0490   0.0000   0.0000   0.0000

          k = 0.0000 0.2500 0.2500 (  2340 PWs)   bands (ev):

   -15.5284  -9.9338  -5.4809  -5.3702  -5.1751  -2.0739  -1.9033   1.1891

     occupation numbers 
     1.0000   1.0000   0.9803   0.8184   0.1317   0.0000   0.0000   0.0000

          k = 0.0000 0.2500-0.5000 (  2356 PWs)   bands (ev):

   -15.5185  -9.9596  -5.5388  -5.3886  -5.1907  -2.0875  -1.8051   1.8864

     occupation numbers 
     1.0000   1.0000   0.9961   0.8645   0.1693   0.0000   0.0000   0.0000

          k = 0.0000-0.5000-0.5000 (  2360 PWs)   bands (ev):

   -15.5086  -9.9843  -5.5554  -5.4067  -5.2352  -2.0843  -1.7044   2.5690

     occupation numbers 
     1.0000   1.0000   0.9977   0.9012   0.3106   0.0000   0.0000   0.0000

          k = 0.2500 0.2500 0.2500 (  2332 PWs)   bands (ev):

   -15.5169  -9.9633  -5.3929  -5.3410  -5.3410  -1.9076  -1.9076   1.2133

     occupation numbers 
     1.0000   1.0000   0.8738   0.7275   0.7275   0.0000   0.0000   0.0000

          k = 0.2500 0.2500-0.5000 (  2332 PWs)   bands (ev):

   -15.5062  -9.9822  -5.5359  -5.3225  -5.3093  -1.9576  -1.7910   2.1257

     occupation numbers 
     1.0000   1.0000   0.9958   0.6602   0.6088   0.0000   0.0000   0.0000

          k = 0.2500-0.5000-0.5000 (  2340 PWs)   bands (ev):

   -15.4974 -10.0024  -5.5195  -5.4588  -5.2858  -1.9322  -1.7486   2.6492

     occupation numbers 
     1.0000   1.0000   0.9931   0.9664   0.5127   0.0000   0.0000   0.0000

          k =-0.5000-0.5000-0.5000 (  2320 PWs)   bands (ev):

   -15.4862 -10.0212  -5.4764  -5.4764  -5.3590  -1.8032  -1.8032   2.9806

     occupation numbers 
     1.0000   1.0000   0.9779   0.9779   0.7860   0.0000   0.0000   0.0000

          k =-0.2500 0.0000 0.2500 (  2340 PWs)   bands (ev):

   -15.5290  -9.9276  -5.6030  -5.2472  -5.1972  -2.0982  -1.9080   1.7444

     occupation numbers 
     1.0000   1.0000   0.9996   0.3558   0.1870   0.0000   0.0000   0.0000

          k = 0.2500-0.2500 0.2500 (  2332 PWs)   bands (ev):

   -15.5176  -9.9518  -5.5837  -5.3376  -5.2050  -1.9485  -1.9178   1.8295

     occupation numbers 
     1.0000   1.0000   0.9991   0.7157   0.2095   0.0000   0.0000   0.0000

          k = 0.2500-0.2500-0.5000 (  2332 PWs)   bands (ev):

   -15.5070  -9.9778  -5.5154  -5.4679  -5.2053  -1.9508  -1.8213   2.0834

     occupation numbers 
     1.0000   1.0000   0.9922   0.9729   0.2105   0.0000   0.0000   0.0000

     the Fermi energy is    -5.2827 ev

!    total energy              =     -21.84570060 Ry
     estimated scf accuracy    <       0.00000018 Ry
     smearing contrib. (-TS)   =      -0.00753897 Ry
     internal energy E=F+TS    =     -21.83816163 Ry

     The total energy is F=E-TS. E is the sum of the following terms:
     one-electron contribution =     -17.00749941 Ry
     hartree contribution      =       9.55241219 Ry
     xc contribution           =      -5.69802432 Ry
     ewald contribution        =      -8.68505010 Ry

     convergence has been achieved in   7 iterations

     Forces acting on atoms (cartesian axes, Ry/au):

     atom    1 type  1   force =     0.12733961    0.12733961    0.12733961
     atom    2 type  1   force =    -0.12733961   -0.12733961   -0.12733961
     The non-local contrib.  to forces
     atom    1 type  1   force =     0.42529446    0.42529446    0.42529446
     atom    2 type  1   force =    -0.42533081   -0.42533081   -0.42533081
     The ionic contribution  to forces
     atom    1 type  1   force =    -1.48850610   -1.48850610   -1.48850610
     atom    2 type  1   force =     1.48850610    1.48850610    1.48850610
     The local contribution  to forces
     atom    1 type  1   force =     1.19088033    1.19088033    1.19088033
     atom    2 type  1   force =    -1.19085716   -1.19085716   -1.19085716
     The core correction contribution to forces
     atom    1 type  1   force =     0.00000000    0.00000000    0.00000000
     atom    2 type  1   force =     0.00000000    0.00000000    0.00000000
     The Hubbard contrib.    to forces
     atom    1 type  1   force =     0.00000000    0.00000000    0.00000000
     atom    2 type  1   force =     0.00000000    0.00000000    0.00000000
     The SCF correction term to forces
     atom    1 type  1   force =    -0.00032422   -0.00032422   -0.00032422
     atom    2 type  1   force =     0.00034711    0.00034711    0.00034711

     Total force =     0.311917     Total SCF correction =     0.000823


     Computing stress (Cartesian axis) and pressure

          total   stress  (Ry/bohr**3)                   (kbar)     P=      -96.66
  -0.00065707  -0.00031512  -0.00031512          -96.66      -46.36      -46.36
  -0.00031512  -0.00065707  -0.00031512          -46.36      -96.66      -46.36
  -0.00031512  -0.00031512  -0.00065707          -46.36      -46.36      -96.66

     kinetic stress (kbar)   1398.92     34.39     34.39
                               34.39   1398.92     34.39
                               34.39     34.39   1398.92

     local   stress (kbar)  -1578.30   -688.86   -688.86
                             -688.86  -1578.30   -688.86
                             -688.86   -688.86  -1578.30

     nonloc. stress (kbar)    336.37    -19.38    -19.38
                              -19.38    336.37    -19.38
                              -19.38    -19.38    336.37

     hartree stress (kbar)    555.28    182.29    182.29
                              182.29    555.28    182.29
                              182.29    182.29    555.28

     exc-cor stress (kbar)   -304.06      0.00      0.00
                                0.00   -304.06      0.00
                                0.00      0.00   -304.06

     corecor stress (kbar)      0.00      0.00      0.00
                                0.00      0.00      0.00
                                0.00      0.00      0.00

     ewald   stress (kbar)   -504.86    445.22    445.22
                              445.22   -504.86    445.22
                              445.22    445.22   -504.86

     hubbard stress (kbar)      0.00      0.00      0.00
                                0.00      0.00      0.00
                                0.00      0.00      0.00

     DFT-D   stress (kbar)      0.00      0.00      0.00
                                0.00      0.00      0.00
                                0.00      0.00      0.00

     XDM     stress (kbar)      0.00      0.00      0.00
                                0.00      0.00      0.00
                                0.00      0.00      0.00

     dft-nl  stress (kbar)      0.00      0.00      0.00
                                0.00      0.00      0.00
                                0.00      0.00      0.00

     TS-vdW  stress (kbar)      0.00      0.00      0.00
                                0.00      0.00      0.00
                                0.00      0.00      0.00

     MDB     stress (kbar)      0.00      0.00      0.00
                                0.00      0.00      0.00
                                0.00      0.00      0.00

     3D-RISM stress (kbar)      0.00      0.00      0.00
                                0.00      0.00      0.00
                                0.00      0.00      0.00


     Writing all to output data dir /app/simulations/sim_20250727_235345_C5/out/C5.save/ :
     XML data file, charge density, pseudopotentials, collected wavefunctions

     ==================================================
     AUTO_OPTIMIZE SUMMARY:
     Using ecutwfc =   30.0 Ry, ecutrho =  120.0 Ry
     ==================================================


     init_run     :      1.40s CPU      1.13s WALL (       1 calls)
     electrons    :     14.80s CPU     11.61s WALL (       1 calls)
     forces       :      0.08s CPU      0.04s WALL (       1 calls)
     stress       :      0.30s CPU      0.19s WALL (       1 calls)

     Called by init_run:
     wfcinit      :      1.19s CPU      0.91s WALL (       1 calls)
     wfcinit:atom :      0.02s CPU      0.02s WALL (      13 calls)
     wfcinit:wfcr :      1.11s CPU      0.84s WALL (      13 calls)
     potinit      :      0.01s CPU      0.01s WALL (       1 calls)
     hinit0       :      0.19s CPU      0.19s WALL (       1 calls)

     Called by electrons:
     c_bands      :     13.47s CPU     10.79s WALL (       8 calls)
     sum_band     :      1.16s CPU      0.68s WALL (       8 calls)
     v_of_rho     :      0.07s CPU      0.04s WALL (       8 calls)
     v_h          :      0.01s CPU      0.01s WALL (       8 calls)
     v_xc         :      0.06s CPU      0.03s WALL (       8 calls)
     mix_rho      :      0.05s CPU      0.04s WALL (       8 calls)

     Called by c_bands:
     init_us_2    :      0.26s CPU      0.16s WALL (     247 calls)
     cegterg      :     12.34s CPU      9.70s WALL (     104 calls)

     Called by sum_band:
     sum_band:wei :      0.00s CPU      0.00s WALL (       8 calls)
     sum_band:loo :      1.10s CPU      0.64s WALL (       8 calls)
     sum_band:buf :      0.01s CPU      0.01s WALL (     104 calls)
     sum_band:ini :      0.11s CPU      0.07s WALL (     104 calls)

     Called by *egterg:
     cdiaghg      :      0.14s CPU      0.09s WALL (     302 calls)
     cegterg:over :      1.68s CPU      1.74s WALL (     211 calls)
     cegterg:upda :      1.23s CPU      1.06s WALL (     211 calls)
     cegterg:last :      0.64s CPU      0.61s WALL (     145 calls)
     h_psi        :      8.76s CPU      6.13s WALL (     328 calls)
     g_psi        :      0.03s CPU      0.02s WALL (     211 calls)

     Called by h_psi:
     h_psi:calbec :      1.37s CPU      1.45s WALL (     328 calls)
     vloc_psi     :      6.22s CPU      3.66s WALL (     328 calls)
                                        0.00s GPU  (     328 calls)
     add_vuspsi   :      1.11s CPU      0.97s WALL (     328 calls)

     General routines
     calbec       :      1.45s CPU      1.50s WALL (     549 calls)
     fft          :      0.20s CPU      0.19s WALL (      29 calls)
     ffts         :      0.02s CPU      0.01s WALL (       8 calls)
     fftw         :      6.08s CPU      3.59s WALL (    4996 calls)

     Parallel routines

     PWSCF        :     16.64s CPU     13.48s WALL


   This run was terminated on:  23:54: 1  27Jul2025            

=------------------------------------------------------------------------------=
   JOB DONE.
=------------------------------------------------------------------------------=
