
     Program PWSCF v.7.4.1 starts on 27Jul2025 at 21:15: 6 
        Git branch: develop
        Last git commit: c6fcc3932752aa8349da082e54d44ca9a418c6ff-dirty
        Last git commit date: Fri Jul 25 12:05:43 2025 -0500
        Last git commit subject: Sanity Checks

     This program is part of the open-source Quantum ESPRESSO suite
     for quantum simulation of materials; please cite
         "P. Giannozzi et al., J. Phys.:Condens. Matter 21 395502 (2009);
         "P. Giannozzi et al., J. Phys.:Condens. Matter 29 465901 (2017);
         "P. Giannozzi et al., J. Chem. Phys. 152 154105 (2020);
          URL http://www.quantum-espresso.org", 
     in publications or presentations arising from this work. More details at
     http://www.quantum-espresso.org/quote

     Parallel version (MPI), running on     1 processors

     MPI processes distributed on     1 nodes
     1993 MiB available memory on the printing compute node when the environment starts

     Reading input from /app/simulations/sim_20250727_211503_C31/C31.in

     Current dimensions of program PWSCF are:
     Max number of different atomic species (ntypx) = 10
     Max number of k-points (npk) =  40000
     Max angular momentum in pseudopotentials (lmaxx) =  4
     file C_3.98148.UPF: wavefunction(s)  3d renormalized

     Checkpoint signal handlers installed successfully
       - Send SIGUSR1 (kill -USR1 <pid>) for soft pause with checkpoint
       - Send SIGUSR2 (kill -USR2 <pid>) for status snapshot

     ============================================================
     AUTOMATED PARAMETER OPTIMIZATION
     ============================================================


     Testing cutoff convergence...
     Target accuracy:  1.0000E-04 Ry
     Ecutwfc =   30.0 Ry, Energy =   -13.14492985 Ry
     Ecutwfc =   40.0 Ry, Energy =   -13.64061007 Ry, Delta =  4.9568E-01
     Ecutwfc =   50.0 Ry, Energy =   -14.04886517 Ry, Delta =  4.0826E-01
     Ecutwfc =   60.0 Ry, Energy =   -14.38233375 Ry, Delta =  3.3347E-01
     Ecutwfc =   70.0 Ry, Energy =   -14.65424129 Ry, Delta =  2.7191E-01
     Ecutwfc =   80.0 Ry, Energy =   -14.87951130 Ry, Delta =  2.2527E-01
     Ecutwfc =   90.0 Ry, Energy =   -15.06061156 Ry, Delta =  1.8110E-01
     Ecutwfc =  100.0 Ry, Energy =   -15.21182995 Ry, Delta =  1.5122E-01
     Ecutwfc =  110.0 Ry, Energy =   -15.33402845 Ry, Delta =  1.2220E-01
     Ecutwfc =  120.0 Ry, Energy =   -15.43382962 Ry, Delta =  9.9801E-02

     WARNING: Cutoff convergence not achieved
     Consider increasing cutoff_max or decreasing target_accuracy

     ============================================================


     Using optimized cutoffs:
     ecutwfc =   30.0 Ry, ecutrho =  120.0 Ry
     Message from routine setup:
     using ibrav=0 with symmetry is DISCOURAGED, use correct ibrav instead

     Configuration saved to: /root/.qe/config.ini

     Sanity checks passed: No issues found

     Subspace diagonalization in iterative solution of the eigenvalue problem:
     a serial algorithm will be used


     G-vector sticks info
     --------------------
     sticks:   dense  smooth     PW     G-vecs:    dense   smooth      PW
     Sum         853     853    261                18805    18805    3119

     Using Slab Decomposition



     bravais-lattice index     =            0
     lattice parameter (alat)  =       9.4486  a.u.
     unit-cell volume          =     843.5418 (a.u.)^3
     number of atoms/cell      =            3
     number of atomic types    =            1
     number of electrons       =        11.94
     number of Kohn-Sham states=           10
     kinetic-energy cutoff     =      30.0000  Ry
     charge density cutoff     =     120.0000  Ry
     scf convergence threshold =      1.0E-04
     mixing beta               =       0.7000
     number of iterations used =            8  plain     mixing
     Exchange-correlation=  SLA  PZ   NOGX NOGC
                           (   1   1   0   0   0   0   0)

     celldm(1)=   9.448631  celldm(2)=   0.000000  celldm(3)=   0.000000
     celldm(4)=   0.000000  celldm(5)=   0.000000  celldm(6)=   0.000000

     crystal axes: (cart. coord. in units of alat)
               a(1) = (   1.000000   0.000000   0.000000 )  
               a(2) = (   0.000000   1.000000   0.000000 )  
               a(3) = (   0.000000   0.000000   1.000000 )  

     reciprocal axes: (cart. coord. in units 2 pi/alat)
               b(1) = (  1.000000  0.000000  0.000000 )  
               b(2) = (  0.000000  1.000000  0.000000 )  
               b(3) = (  0.000000  0.000000  1.000000 )  


     PseudoPot. # 1 for C  read from file:
     /opt/qe/pseudo/C_3.98148.UPF
     MD5 check sum: 65c7b08075d3a1a132e7e999f2747431
     Pseudo is Norm-conserving, Zval =  4.0
     Generated by new atomic code, or converted to UPF format
     Using radial grid of  461 points,  2 beta functions with: 
                l(1) =   0
                l(2) =   1

     atomic species   valence    mass     pseudopotential
     C                 3.98    12.01100     C ( 1.00)

      6 Sym. Ops. (no inversion) found


                                    s                        frac. trans.

      isym =  1     identity                                     

 cryst.   s( 1) = (     1          0          0      )
                  (     0          1          0      )
                  (     0          0          1      )

 cart.    s( 1) = (  1.0000000  0.0000000  0.0000000 )
                  (  0.0000000  1.0000000  0.0000000 )
                  (  0.0000000  0.0000000  1.0000000 )


      isym =  2     120 deg rotation - cart. axis [-1,-1,-1]     

 cryst.   s( 2) = (     0          0          1      )
                  (     1          0          0      )
                  (     0          1          0      )

 cart.    s( 2) = (  0.0000000  1.0000000  0.0000000 )
                  (  0.0000000  0.0000000  1.0000000 )
                  (  1.0000000  0.0000000  0.0000000 )


      isym =  3     120 deg rotation - cart. axis [1,1,1]        

 cryst.   s( 3) = (     0          1          0      )
                  (     0          0          1      )
                  (     1          0          0      )

 cart.    s( 3) = (  0.0000000  0.0000000  1.0000000 )
                  (  1.0000000  0.0000000  0.0000000 )
                  (  0.0000000  1.0000000  0.0000000 )


      isym =  4     inv. 180 deg rotation - cart. axis [1,-1,0]  

 cryst.   s( 4) = (     0          1          0      )
                  (     1          0          0      )
                  (     0          0          1      )

 cart.    s( 4) = (  0.0000000  1.0000000  0.0000000 )
                  (  1.0000000  0.0000000  0.0000000 )
                  (  0.0000000  0.0000000  1.0000000 )


      isym =  5     inv. 180 deg rotation - cart. axis [-1,0,1]  

 cryst.   s( 5) = (     0          0          1      )
                  (     0          1          0      )
                  (     1          0          0      )

 cart.    s( 5) = (  0.0000000  0.0000000  1.0000000 )
                  (  0.0000000  1.0000000  0.0000000 )
                  (  1.0000000  0.0000000  0.0000000 )


      isym =  6     inv. 180 deg rotation - cart. axis [0,1,-1]  

 cryst.   s( 6) = (     1          0          0      )
                  (     0          0          1      )
                  (     0          1          0      )

 cart.    s( 6) = (  1.0000000  0.0000000  0.0000000 )
                  (  0.0000000  0.0000000  1.0000000 )
                  (  0.0000000  1.0000000  0.0000000 )


   Cartesian axes

     site n.     atom                  positions (alat units)
         1        C      tau(   1) = (   0.4000000   0.0000000   0.0000000  )
         2        C      tau(   2) = (   0.0000000   0.4000000   0.0000000  )
         3        C      tau(   3) = (   0.0000000   0.0000000   0.4000000  )

   Crystallographic axes

     site n.     atom                  positions (cryst. coord.)
         1        C      tau(   1) = (  0.4000000  0.0000000  0.0000000  )
         2        C      tau(   2) = (  0.0000000  0.4000000  0.0000000  )
         3        C      tau(   3) = (  0.0000000  0.0000000  0.4000000  )

     number of k points=    13  Gaussian smearing, width (Ry)=  0.0100
                       cart. coord. in units 2pi/alat
        k(    1) = (   0.0000000   0.0000000   0.0000000), wk =   0.0312500
        k(    2) = (   0.0000000   0.0000000   0.2500000), wk =   0.1875000
        k(    3) = (   0.0000000   0.0000000  -0.5000000), wk =   0.0937500
        k(    4) = (   0.0000000   0.2500000   0.2500000), wk =   0.1875000
        k(    5) = (   0.0000000   0.2500000  -0.5000000), wk =   0.3750000
        k(    6) = (   0.0000000  -0.5000000  -0.5000000), wk =   0.0937500
        k(    7) = (   0.2500000   0.2500000   0.2500000), wk =   0.0625000
        k(    8) = (   0.2500000   0.2500000  -0.5000000), wk =   0.1875000
        k(    9) = (   0.2500000  -0.5000000  -0.5000000), wk =   0.1875000
        k(   10) = (  -0.5000000  -0.5000000  -0.5000000), wk =   0.0312500
        k(   11) = (  -0.2500000   0.0000000   0.2500000), wk =   0.1875000
        k(   12) = (   0.2500000  -0.2500000   0.2500000), wk =   0.1875000
        k(   13) = (   0.2500000  -0.2500000  -0.5000000), wk =   0.1875000

                       cryst. coord.
        k(    1) = (   0.0000000   0.0000000   0.0000000), wk =   0.0312500
        k(    2) = (   0.0000000   0.0000000   0.2500000), wk =   0.1875000
        k(    3) = (   0.0000000   0.0000000  -0.5000000), wk =   0.0937500
        k(    4) = (   0.0000000   0.2500000   0.2500000), wk =   0.1875000
        k(    5) = (   0.0000000   0.2500000  -0.5000000), wk =   0.3750000
        k(    6) = (   0.0000000  -0.5000000  -0.5000000), wk =   0.0937500
        k(    7) = (   0.2500000   0.2500000   0.2500000), wk =   0.0625000
        k(    8) = (   0.2500000   0.2500000  -0.5000000), wk =   0.1875000
        k(    9) = (   0.2500000  -0.5000000  -0.5000000), wk =   0.1875000
        k(   10) = (  -0.5000000  -0.5000000  -0.5000000), wk =   0.0312500
        k(   11) = (  -0.2500000   0.0000000   0.2500000), wk =   0.1875000
        k(   12) = (   0.2500000  -0.2500000   0.2500000), wk =   0.1875000
        k(   13) = (   0.2500000  -0.2500000  -0.5000000), wk =   0.1875000

     Dense  grid:    18805 G-vectors     FFT dimensions: (  36,  36,  36)

     Dynamical RAM for                 wfc:       0.36 MB

     Dynamical RAM for     wfc (w. buffer):       5.00 MB

     Dynamical RAM for           str. fact:       0.29 MB

     Dynamical RAM for           local pot:       0.00 MB

     Dynamical RAM for          nlocal pot:       0.43 MB

     Dynamical RAM for                qrad:       0.08 MB

     Dynamical RAM for          rho,v,vnew:       1.93 MB

     Dynamical RAM for               rhoin:       0.64 MB

     Dynamical RAM for            rho*nmix:       4.59 MB

     Dynamical RAM for           G-vectors:       1.22 MB

     Dynamical RAM for          h,s,v(r/c):       0.02 MB

     Dynamical RAM for          <psi|beta>:       0.00 MB

     Dynamical RAM for                 psi:       0.71 MB

     Dynamical RAM for                hpsi:       0.71 MB

     Dynamical RAM for      wfcinit/wfcrot:       0.72 MB

     Estimated static dynamical RAM per process >      11.94 MB

     Estimated max dynamical RAM per process >      17.98 MB

     Initial potential from superposition of free atoms

     starting charge      11.9443, renormalised to      11.9444
     Starting wfcs are   27 randomized atomic wfcs

     total cpu time spent up to now is        3.9 secs

     per-process dynamical memory:    18.7 Mb

     Self-consistent Calculation

     iteration #  1     ecut=    30.00 Ry     beta= 0.70
     Davidson diagonalization with overlap

---- Real-time Memory Report at c_bands before calling an iterative solver
            70 MiB given to the printing process from OS
            19 MiB allocation reported by mallinfo(arena+hblkhd)
          1975 MiB available memory on the node where the printing process lives
------------------
     ethr =  1.00E-02,  avg # of iterations =  1.0

     Threshold (ethr) on eigenvalues was too large:
     Diagonalizing with lowered threshold

     Davidson diagonalization with overlap

---- Real-time Memory Report at c_bands before calling an iterative solver
            70 MiB given to the printing process from OS
            20 MiB allocation reported by mallinfo(arena+hblkhd)
          1974 MiB available memory on the node where the printing process lives
------------------
     ethr =  3.66E-04,  avg # of iterations =  1.2

     total cpu time spent up to now is        5.6 secs

     total energy              =     -32.10617330 Ry
     estimated scf accuracy    <       0.04597730 Ry

     iteration #  2     ecut=    30.00 Ry     beta= 0.70
     Davidson diagonalization with overlap

---- Real-time Memory Report at c_bands before calling an iterative solver
            70 MiB given to the printing process from OS
            24 MiB allocation reported by mallinfo(arena+hblkhd)
          1970 MiB available memory on the node where the printing process lives
------------------
     ethr =  3.85E-04,  avg # of iterations =  2.0

     total cpu time spent up to now is        7.5 secs

     total energy              =     -32.11240085 Ry
     estimated scf accuracy    <       0.00109448 Ry

     iteration #  3     ecut=    30.00 Ry     beta= 0.70
     Davidson diagonalization with overlap

---- Real-time Memory Report at c_bands before calling an iterative solver
            70 MiB given to the printing process from OS
            25 MiB allocation reported by mallinfo(arena+hblkhd)
          1969 MiB available memory on the node where the printing process lives
------------------
     ethr =  9.16E-06,  avg # of iterations =  2.0

     total cpu time spent up to now is        9.3 secs

     End of self-consistent calculation

          k = 0.0000 0.0000 0.0000 (  2325 PWs)   bands (ev):

   -12.2942 -10.7366 -10.7366  -4.1513  -3.8124  -3.8124  -2.6449  -2.6448
    -2.5641  -2.1236

     occupation numbers 
     1.0000   1.0000   1.0000   1.0000   0.9996   0.9996   0.0000   0.0000
     0.0000   0.0000

          k = 0.0000 0.0000 0.2500 (  2324 PWs)   bands (ev):

   -12.1993 -10.8728 -10.7271  -4.0617  -3.7259  -3.7096  -2.8366  -2.8207
    -2.5295  -2.1003

     occupation numbers 
     1.0000   1.0000   1.0000   1.0000   0.9933   0.9893   0.0000   0.0000
     0.0000   0.0000

          k = 0.0000 0.0000-0.5000 (  2360 PWs)   bands (ev):

   -12.0816 -11.0312 -10.7176  -3.9678  -3.6279  -3.5024  -3.1406  -2.9977
    -2.5728  -2.1105

     occupation numbers 
     1.0000   1.0000   1.0000   1.0000   0.9270   0.5592   0.0002   0.0000
     0.0000   0.0000

          k = 0.0000 0.2500 0.2500 (  2340 PWs)   bands (ev):

   -12.1101 -10.9075 -10.7984  -4.1615  -3.7474  -3.4321  -3.2207  -2.7167
    -2.6567  -2.0209

     occupation numbers 
     1.0000   1.0000   1.0000   1.0000   0.9965   0.2804   0.0027   0.0000
     0.0000   0.0000

          k = 0.0000 0.2500-0.5000 (  2356 PWs)   bands (ev):

   -11.9957 -11.0316 -10.8089  -4.0480  -3.7780  -3.5454  -3.2668  -2.8674
    -2.4728  -1.9836

     occupation numbers 
     1.0000   1.0000   1.0000   1.0000   0.9987   0.7242   0.0107   0.0000
     0.0000   0.0000

          k = 0.0000-0.5000-0.5000 (  2360 PWs)   bands (ev):

   -11.8900 -11.0636 -10.8886  -4.0488  -3.9965  -3.5530  -3.3256  -2.8613
    -2.3705  -1.8295

     occupation numbers 
     1.0000   1.0000   1.0000   1.0000   1.0000   0.7502   0.0456   0.0000
     0.0000   0.0000

          k = 0.2500 0.2500 0.2500 (  2332 PWs)   bands (ev):

   -12.0276 -10.8946 -10.8946  -4.3686  -3.5641  -3.5640  -3.3505  -2.7079
    -2.7078  -1.8830

     occupation numbers 
     1.0000   1.0000   1.0000   1.0000   0.7852   0.7851   0.0763   0.0000
     0.0000   0.0000

          k = 0.2500 0.2500-0.5000 (  2332 PWs)   bands (ev):

   -11.9177 -11.0257 -10.8820  -4.3227  -3.7625  -3.6648  -3.4438  -2.7245
    -2.3020  -1.8297

     occupation numbers 
     1.0000   1.0000   1.0000   1.0000   0.9978   0.9669   0.3226   0.0000
     0.0000   0.0000

          k = 0.2500-0.5000-0.5000 (  2340 PWs)   bands (ev):

   -11.8180 -11.0482 -10.9528  -4.3915  -3.9715  -3.7122  -3.6452  -2.4462
    -2.1582  -1.7517

     occupation numbers 
     1.0000   1.0000   1.0000   1.0000   1.0000   0.9901   0.9488   0.0000
     0.0000   0.0000

          k =-0.5000-0.5000-0.5000 (  2320 PWs)   bands (ev):

   -11.7310 -11.0326 -11.0326  -4.5763  -3.9912  -3.8761  -3.8760  -2.0714
    -2.0711  -1.6221

     occupation numbers 
     1.0000   1.0000   1.0000   1.0000   1.0000   1.0000   1.0000   0.0000
     0.0000   0.0000

          k =-0.2500 0.0000 0.2500 (  2340 PWs)   bands (ev):

   -12.1065 -10.9187 -10.7944  -3.9931  -3.8547  -3.5827  -3.0415  -2.8742
    -2.3836  -2.0304

     occupation numbers 
     1.0000   1.0000   1.0000   1.0000   0.9999   0.8373   0.0000   0.0000
     0.0000   0.0000

          k = 0.2500-0.2500 0.2500 (  2332 PWs)   bands (ev):

   -12.0201 -10.9090 -10.8950  -4.2071  -3.7811  -3.5211  -3.3372  -2.7139
    -2.3501  -1.9229

     occupation numbers 
     1.0000   1.0000   1.0000   1.0000   0.9988   0.6340   0.0584   0.0000
     0.0000   0.0000

          k = 0.2500-0.2500-0.5000 (  2332 PWs)   bands (ev):

   -11.9137 -11.0235 -10.8920  -4.2356  -3.8547  -3.6074  -3.5219  -2.4702
    -2.3889  -1.8614

     occupation numbers 
     1.0000   1.0000   1.0000   1.0000   0.9999   0.8925   0.6374   0.0000
     0.0000   0.0000

     the Fermi energy is    -3.4881 ev

!    total energy              =     -32.11257530 Ry
     estimated scf accuracy    <       0.00002832 Ry
     smearing contrib. (-TS)   =      -0.00494146 Ry
     internal energy E=F+TS    =     -32.10763383 Ry

     The total energy is F=E-TS. E is the sum of the following terms:
     one-electron contribution =     -13.50692550 Ry
     hartree contribution      =       8.70027481 Ry
     xc contribution           =      -8.07809911 Ry
     ewald contribution        =     -19.22288403 Ry

     convergence has been achieved in   3 iterations

     Forces acting on atoms (cartesian axes, Ry/au):

     atom    1 type  1   force =    -0.07267620    0.03633810    0.03633810
     atom    2 type  1   force =     0.03633810   -0.07267620    0.03633810
     atom    3 type  1   force =     0.03633810    0.03633810   -0.07267620
     The non-local contrib.  to forces
     atom    1 type  1   force =    -0.23164125    0.13938918    0.13938918
     atom    2 type  1   force =     0.13938918   -0.23164125    0.13938918
     atom    3 type  1   force =     0.13938918    0.13938918   -0.23164125
     The ionic contribution  to forces
     atom    1 type  1   force =     0.69615763   -0.34807882   -0.34807882
     atom    2 type  1   force =    -0.34807882    0.69615763   -0.34807882
     atom    3 type  1   force =    -0.34807882   -0.34807882    0.69615763
     The local contribution  to forces
     atom    1 type  1   force =    -0.53765715    0.24379675    0.24379675
     atom    2 type  1   force =     0.24379675   -0.53765715    0.24379675
     atom    3 type  1   force =     0.24379675    0.24379675   -0.53765715
     The core correction contribution to forces
     atom    1 type  1   force =     0.00000000    0.00000000    0.00000000
     atom    2 type  1   force =     0.00000000    0.00000000    0.00000000
     atom    3 type  1   force =     0.00000000    0.00000000    0.00000000
     The Hubbard contrib.    to forces
     atom    1 type  1   force =     0.00000000    0.00000000    0.00000000
     atom    2 type  1   force =     0.00000000    0.00000000    0.00000000
     atom    3 type  1   force =     0.00000000    0.00000000    0.00000000
     The SCF correction term to forces
     atom    1 type  1   force =     0.00052057    0.00128700    0.00128700
     atom    2 type  1   force =     0.00128700    0.00052057    0.00128700
     atom    3 type  1   force =     0.00128700    0.00128700    0.00052057

     Total force =     0.154170     Total SCF correction =     0.003279


     Computing stress (Cartesian axis) and pressure

          total   stress  (Ry/bohr**3)                   (kbar)     P=     -123.02
  -0.00083630   0.00011463   0.00011463         -123.02       16.86       16.86
   0.00011463  -0.00083630   0.00011463           16.86     -123.02       16.86
   0.00011463   0.00011463  -0.00083630           16.86       16.86     -123.02

     kinetic stress (kbar)   1916.31    -57.46    -57.46
                              -57.46   1916.31    -57.46
                              -57.46    -57.46   1916.31

     local   stress (kbar)  -1407.52    232.26    232.26
                              232.26  -1407.52    232.26
                              232.26    232.26  -1407.52

     nonloc. stress (kbar)    410.31     17.90     17.90
                               17.90    410.31     17.90
                               17.90     17.90    410.31

     hartree stress (kbar)    505.75    -69.68    -69.68
                              -69.68    505.75    -69.68
                              -69.68    -69.68    505.75

     exc-cor stress (kbar)   -430.45      0.00      0.00
                                0.00   -430.45      0.00
                                0.00      0.00   -430.45

     corecor stress (kbar)      0.00      0.00      0.00
                                0.00      0.00      0.00
                                0.00      0.00      0.00

     ewald   stress (kbar)  -1117.42   -106.15   -106.15
                             -106.15  -1117.42   -106.15
                             -106.15   -106.15  -1117.42

     hubbard stress (kbar)      0.00      0.00      0.00
                                0.00      0.00      0.00
                                0.00      0.00      0.00

     DFT-D   stress (kbar)      0.00      0.00      0.00
                                0.00      0.00      0.00
                                0.00      0.00      0.00

     XDM     stress (kbar)      0.00      0.00      0.00
                                0.00      0.00      0.00
                                0.00      0.00      0.00

     dft-nl  stress (kbar)      0.00      0.00      0.00
                                0.00      0.00      0.00
                                0.00      0.00      0.00

     TS-vdW  stress (kbar)      0.00      0.00      0.00
                                0.00      0.00      0.00
                                0.00      0.00      0.00

     MDB     stress (kbar)      0.00      0.00      0.00
                                0.00      0.00      0.00
                                0.00      0.00      0.00

     3D-RISM stress (kbar)      0.00      0.00      0.00
                                0.00      0.00      0.00
                                0.00      0.00      0.00


     Writing all to output data dir /app/simulations/sim_20250727_211503_C31/out/C31.save/ :
     XML data file, charge density, pseudopotentials, collected wavefunctions

     ==================================================
     AUTO_OPTIMIZE SUMMARY:
     Using ecutwfc =   30.0 Ry, ecutrho =  120.0 Ry
     ==================================================


     init_run     :      4.27s CPU      3.81s WALL (       1 calls)
     electrons    :      7.50s CPU      5.35s WALL (       1 calls)
     forces       :      0.27s CPU      0.14s WALL (       1 calls)
     stress       :      0.80s CPU      0.42s WALL (       1 calls)

     Called by init_run:
     wfcinit      :      3.83s CPU      3.36s WALL (       1 calls)
     wfcinit:atom :      0.03s CPU      0.03s WALL (      13 calls)
     wfcinit:wfcr :      3.54s CPU      3.19s WALL (      13 calls)
     potinit      :      0.02s CPU      0.03s WALL (       1 calls)
     hinit0       :      0.40s CPU      0.40s WALL (       1 calls)

     Called by electrons:
     c_bands      :      6.79s CPU      4.87s WALL (       4 calls)
     sum_band     :      0.66s CPU      0.40s WALL (       4 calls)
     v_of_rho     :      0.02s CPU      0.02s WALL (       4 calls)
     v_h          :      0.01s CPU      0.01s WALL (       4 calls)
     v_xc         :      0.01s CPU      0.01s WALL (       4 calls)
     mix_rho      :      0.02s CPU      0.01s WALL (       4 calls)

     Called by c_bands:
     init_us_2    :      0.20s CPU      0.12s WALL (     143 calls)
     cegterg      :      6.31s CPU      4.49s WALL (      52 calls)

     Called by sum_band:
     sum_band:wei :      0.00s CPU      0.00s WALL (       4 calls)
     sum_band:loo :      0.65s CPU      0.38s WALL (       4 calls)
     sum_band:buf :      0.01s CPU      0.00s WALL (      52 calls)
     sum_band:ini :      0.05s CPU      0.03s WALL (      52 calls)

     Called by *egterg:
     cdiaghg      :      0.14s CPU      0.09s WALL (     120 calls)
     cegterg:over :      0.47s CPU      0.38s WALL (      81 calls)
     cegterg:upda :      0.41s CPU      0.41s WALL (      81 calls)
     cegterg:last :      0.30s CPU      0.23s WALL (      81 calls)
     h_psi        :      6.14s CPU      4.13s WALL (     146 calls)
     g_psi        :      0.02s CPU      0.01s WALL (      81 calls)

     Called by h_psi:
     h_psi:calbec :      0.96s CPU      0.91s WALL (     146 calls)
     vloc_psi     :      4.61s CPU      2.71s WALL (     146 calls)
                                        0.00s GPU  (     146 calls)
     add_vuspsi   :      0.51s CPU      0.47s WALL (     146 calls)

     General routines
     calbec       :      1.58s CPU      1.25s WALL (     367 calls)
     fft          :      0.36s CPU      0.35s WALL (      17 calls)
     ffts         :      0.00s CPU      0.00s WALL (       4 calls)
     fftw         :      4.45s CPU      2.63s WALL (    3590 calls)

     Parallel routines

     PWSCF        :     13.05s CPU     10.53s WALL


   This run was terminated on:  21:15:17  27Jul2025            

=------------------------------------------------------------------------------=
   JOB DONE.
=------------------------------------------------------------------------------=
