
     Program PWSCF v.7.4.1 starts on 28Jul2025 at  0:32:49 
        Git branch: develop
        Last git commit: c6fcc3932752aa8349da082e54d44ca9a418c6ff-dirty
        Last git commit date: Fri Jul 25 12:05:43 2025 -0500
        Last git commit subject: Sanity Checks

     This program is part of the open-source Quantum ESPRESSO suite
     for quantum simulation of materials; please cite
         "P. Giannozzi et al., J. Phys.:Condens. Matter 21 395502 (2009);
         "P. Giannozzi et al., J. Phys.:Condens. Matter 29 465901 (2017);
         "P. Giannozzi et al., J. Chem. Phys. 152 154105 (2020);
          URL http://www.quantum-espresso.org", 
     in publications or presentations arising from this work. More details at
     http://www.quantum-espresso.org/quote

     Parallel version (MPI), running on     1 processors

     MPI processes distributed on     1 nodes
     2425 MiB available memory on the printing compute node when the environment starts

     Reading input from /app/simulations/sim_20250728_003245_Carbon/Carbon.in

     Current dimensions of program PWSCF are:
     Max number of different atomic species (ntypx) = 10
     Max number of k-points (npk) =  40000
     Max angular momentum in pseudopotentials (lmaxx) =  4
     file C.UPF: wavefunction(s)  3d renormalized
     Message from routine setup:
     using ibrav=0 with symmetry is DISCOURAGED, use correct ibrav instead

     Subspace diagonalization in iterative solution of the eigenvalue problem:
     a serial algorithm will be used


     G-vector sticks info
     --------------------
     sticks:   dense  smooth     PW     G-vecs:    dense   smooth      PW
     Sum         855     855    261                24201    24201    4059

     Using Slab Decomposition



     bravais-lattice index     =            0
     lattice parameter (alat)  =       5.6692  a.u.
     unit-cell volume          =     506.1251 (a.u.)^3
     number of atoms/cell      =            2
     number of atomic types    =            1
     number of electrons       =         8.00
     number of Kohn-Sham states=            8
     kinetic-energy cutoff     =      50.0000  Ry
     charge density cutoff     =     200.0000  Ry
     scf convergence threshold =      1.0E-06
     mixing beta               =       0.7000
     number of iterations used =            8  plain     mixing
     Exchange-correlation=  SLA  PZ   NOGX NOGC
                           (   1   1   0   0   0   0   0)

     celldm(1)=   5.669178  celldm(2)=   0.000000  celldm(3)=   0.000000
     celldm(4)=   0.000000  celldm(5)=   0.000000  celldm(6)=   0.000000

     crystal axes: (cart. coord. in units of alat)
               a(1) = (   1.000000   0.000000   0.000000 )  
               a(2) = (   0.000000   1.666667   0.000000 )  
               a(3) = (   0.000000   0.000000   1.666667 )  

     reciprocal axes: (cart. coord. in units 2 pi/alat)
               b(1) = (  1.000000  0.000000  0.000000 )  
               b(2) = (  0.000000  0.600000  0.000000 )  
               b(3) = (  0.000000  0.000000  0.600000 )  


     PseudoPot. # 1 for C  read from file:
     /opt/qe/pseudo/C.UPF
     MD5 check sum: 2c7381bf144020b9e2c6aa7a5554b9ab
     Pseudo is Norm-conserving, Zval =  4.0
     Generated by new atomic code, or converted to UPF format
     Using radial grid of  461 points,  2 beta functions with: 
                l(1) =   0
                l(2) =   1

     atomic species   valence    mass     pseudopotential
     C                 4.00    12.01100     C ( 1.00)

      2 Sym. Ops. (no inversion) found


                                    s                        frac. trans.

      isym =  1     identity                                     

 cryst.   s( 1) = (     1          0          0      )
                  (     0          1          0      )
                  (     0          0          1      )

 cart.    s( 1) = (  1.0000000  0.0000000  0.0000000 )
                  (  0.0000000  1.0000000  0.0000000 )
                  (  0.0000000  0.0000000  1.0000000 )


      isym =  2     inv. 180 deg rotation - cart. axis [0,1,-1]  

 cryst.   s( 2) = (     1          0          0      )
                  (     0          0          1      )
                  (     0          1          0      )

 cart.    s( 2) = (  1.0000000  0.0000000  0.0000000 )
                  (  0.0000000  0.0000000  1.0000000 )
                  (  0.0000000  1.0000000  0.0000000 )


   Cartesian axes

     site n.     atom                  positions (alat units)
         1        C      tau(   1) = (   0.0000000   0.0000000   0.0000000  )
         2        C      tau(   2) = (   0.6666667   0.6666667   0.6666667  )

   Crystallographic axes

     site n.     atom                  positions (cryst. coord.)
         1        C      tau(   1) = (  0.0000000  0.0000000  0.0000000  )
         2        C      tau(   2) = (  0.6666667  0.4000000  0.4000000  )

     number of k points=    24  Gaussian smearing, width (Ry)=  0.0100
                       cart. coord. in units 2pi/alat
        k(    1) = (   0.0000000   0.0000000   0.0000000), wk =   0.0312500
        k(    2) = (   0.0000000   0.0000000   0.1500000), wk =   0.1250000
        k(    3) = (   0.0000000   0.0000000  -0.3000000), wk =   0.0625000
        k(    4) = (   0.0000000   0.1500000   0.1500000), wk =   0.0625000
        k(    5) = (   0.0000000   0.1500000  -0.3000000), wk =   0.1250000
        k(    6) = (   0.0000000  -0.3000000  -0.3000000), wk =   0.0312500
        k(    7) = (   0.2500000   0.0000000   0.0000000), wk =   0.0625000
        k(    8) = (   0.2500000   0.0000000   0.1500000), wk =   0.1250000
        k(    9) = (   0.2500000   0.0000000  -0.3000000), wk =   0.1250000
        k(   10) = (   0.2500000   0.1500000   0.1500000), wk =   0.0625000
        k(   11) = (   0.2500000   0.1500000  -0.3000000), wk =   0.1250000
        k(   12) = (   0.2500000  -0.3000000  -0.3000000), wk =   0.0625000
        k(   13) = (  -0.5000000   0.0000000   0.0000000), wk =   0.0312500
        k(   14) = (  -0.5000000   0.0000000   0.1500000), wk =   0.1250000
        k(   15) = (  -0.5000000   0.0000000  -0.3000000), wk =   0.0625000
        k(   16) = (  -0.5000000   0.1500000   0.1500000), wk =   0.0625000
        k(   17) = (  -0.5000000   0.1500000  -0.3000000), wk =   0.1250000
        k(   18) = (  -0.5000000  -0.3000000  -0.3000000), wk =   0.0312500
        k(   19) = (   0.0000000   0.1500000  -0.1500000), wk =   0.0625000
        k(   20) = (   0.2500000   0.0000000  -0.1500000), wk =   0.1250000
        k(   21) = (  -0.2500000   0.1500000  -0.1500000), wk =   0.1250000
        k(   22) = (   0.2500000  -0.1500000  -0.1500000), wk =   0.0625000
        k(   23) = (  -0.2500000   0.1500000   0.3000000), wk =   0.1250000
        k(   24) = (   0.5000000   0.1500000  -0.1500000), wk =   0.0625000

                       cryst. coord.
        k(    1) = (   0.0000000   0.0000000   0.0000000), wk =   0.0312500
        k(    2) = (   0.0000000   0.0000000   0.2500000), wk =   0.1250000
        k(    3) = (   0.0000000   0.0000000  -0.5000000), wk =   0.0625000
        k(    4) = (   0.0000000   0.2500000   0.2500000), wk =   0.0625000
        k(    5) = (   0.0000000   0.2500000  -0.5000000), wk =   0.1250000
        k(    6) = (   0.0000000  -0.5000000  -0.5000000), wk =   0.0312500
        k(    7) = (   0.2500000   0.0000000   0.0000000), wk =   0.0625000
        k(    8) = (   0.2500000   0.0000000   0.2500000), wk =   0.1250000
        k(    9) = (   0.2500000   0.0000000  -0.5000000), wk =   0.1250000
        k(   10) = (   0.2500000   0.2500000   0.2500000), wk =   0.0625000
        k(   11) = (   0.2500000   0.2500000  -0.5000000), wk =   0.1250000
        k(   12) = (   0.2500000  -0.5000000  -0.5000000), wk =   0.0625000
        k(   13) = (  -0.5000000   0.0000000   0.0000000), wk =   0.0312500
        k(   14) = (  -0.5000000   0.0000000   0.2500000), wk =   0.1250000
        k(   15) = (  -0.5000000   0.0000000  -0.5000000), wk =   0.0625000
        k(   16) = (  -0.5000000   0.2500000   0.2500000), wk =   0.0625000
        k(   17) = (  -0.5000000   0.2500000  -0.5000000), wk =   0.1250000
        k(   18) = (  -0.5000000  -0.5000000  -0.5000000), wk =   0.0312500
        k(   19) = (   0.0000000   0.2500000  -0.2500000), wk =   0.0625000
        k(   20) = (   0.2500000   0.0000000  -0.2500000), wk =   0.1250000
        k(   21) = (  -0.2500000   0.2500000  -0.2500000), wk =   0.1250000
        k(   22) = (   0.2500000  -0.2500000  -0.2500000), wk =   0.0625000
        k(   23) = (  -0.2500000   0.2500000   0.5000000), wk =   0.1250000
        k(   24) = (   0.5000000   0.2500000  -0.2500000), wk =   0.0625000

     Dense  grid:    24201 G-vectors     FFT dimensions: (  25,  45,  45)

     Dynamical RAM for                 wfc:       0.37 MB

     Dynamical RAM for     wfc (w. buffer):       9.22 MB

     Dynamical RAM for           str. fact:       0.37 MB

     Dynamical RAM for           local pot:       0.00 MB

     Dynamical RAM for          nlocal pot:       0.37 MB

     Dynamical RAM for                qrad:       0.10 MB

     Dynamical RAM for          rho,v,vnew:       2.27 MB

     Dynamical RAM for               rhoin:       0.76 MB

     Dynamical RAM for            rho*nmix:       5.91 MB

     Dynamical RAM for           G-vectors:       1.57 MB

     Dynamical RAM for          h,s,v(r/c):       0.01 MB

     Dynamical RAM for          <psi|beta>:       0.00 MB

     Dynamical RAM for                 psi:       0.74 MB

     Dynamical RAM for                hpsi:       0.74 MB

     Dynamical RAM for      wfcinit/wfcrot:       0.74 MB

     Estimated static dynamical RAM per process >      17.32 MB

     Estimated max dynamical RAM per process >      24.72 MB

     Initial potential from superposition of free atoms

     starting charge       7.9999, renormalised to       8.0000
     Starting wfcs are   18 randomized atomic wfcs

     total cpu time spent up to now is        2.4 secs

     per-process dynamical memory:    25.4 Mb

     Self-consistent Calculation

     iteration #  1     ecut=    50.00 Ry     beta= 0.70
     Davidson diagonalization with overlap

---- Real-time Memory Report at c_bands before calling an iterative solver
            69 MiB given to the printing process from OS
            25 MiB allocation reported by mallinfo(arena+hblkhd)
          2400 MiB available memory on the node where the printing process lives
------------------
     ethr =  1.00E-02,  avg # of iterations =  1.0

     Threshold (ethr) on eigenvalues was too large:
     Diagonalizing with lowered threshold

     Davidson diagonalization with overlap

---- Real-time Memory Report at c_bands before calling an iterative solver
            69 MiB given to the printing process from OS
            27 MiB allocation reported by mallinfo(arena+hblkhd)
          2400 MiB available memory on the node where the printing process lives
------------------
     ethr =  3.22E-04,  avg # of iterations =  1.0

     total cpu time spent up to now is       10.7 secs

     total energy              =     -21.67233078 Ry
     estimated scf accuracy    <       0.02642102 Ry

     iteration #  2     ecut=    50.00 Ry     beta= 0.70
     Davidson diagonalization with overlap

---- Real-time Memory Report at c_bands before calling an iterative solver
            69 MiB given to the printing process from OS
            32 MiB allocation reported by mallinfo(arena+hblkhd)
          2396 MiB available memory on the node where the printing process lives
------------------
     ethr =  3.30E-04,  avg # of iterations =  2.0

     total cpu time spent up to now is       15.1 secs

     total energy              =     -21.67692689 Ry
     estimated scf accuracy    <       0.00104959 Ry

     iteration #  3     ecut=    50.00 Ry     beta= 0.70
     Davidson diagonalization with overlap

---- Real-time Memory Report at c_bands before calling an iterative solver
            69 MiB given to the printing process from OS
            33 MiB allocation reported by mallinfo(arena+hblkhd)
          2395 MiB available memory on the node where the printing process lives
------------------
     ethr =  1.31E-05,  avg # of iterations =  1.6

     total cpu time spent up to now is       17.4 secs

     total energy              =     -21.67677612 Ry
     estimated scf accuracy    <       0.00076488 Ry

     iteration #  4     ecut=    50.00 Ry     beta= 0.70
     Davidson diagonalization with overlap

---- Real-time Memory Report at c_bands before calling an iterative solver
            69 MiB given to the printing process from OS
            34 MiB allocation reported by mallinfo(arena+hblkhd)
          2394 MiB available memory on the node where the printing process lives
------------------
     ethr =  9.56E-06,  avg # of iterations =  1.1

     total cpu time spent up to now is       20.9 secs

     total energy              =     -21.67612178 Ry
     estimated scf accuracy    <       0.02417825 Ry

     iteration #  5     ecut=    50.00 Ry     beta= 0.70
     Davidson diagonalization with overlap

---- Real-time Memory Report at c_bands before calling an iterative solver
            69 MiB given to the printing process from OS
            35 MiB allocation reported by mallinfo(arena+hblkhd)
          2393 MiB available memory on the node where the printing process lives
------------------
     ethr =  9.56E-06,  avg # of iterations =  1.0

     total cpu time spent up to now is       22.4 secs

     total energy              =     -21.67708377 Ry
     estimated scf accuracy    <       0.00001069 Ry

     iteration #  6     ecut=    50.00 Ry     beta= 0.70
     Davidson diagonalization with overlap

---- Real-time Memory Report at c_bands before calling an iterative solver
            69 MiB given to the printing process from OS
            35 MiB allocation reported by mallinfo(arena+hblkhd)
          2392 MiB available memory on the node where the printing process lives
------------------
     ethr =  1.34E-07,  avg # of iterations =  2.0

     total cpu time spent up to now is       26.8 secs

     End of self-consistent calculation

          k = 0.0000 0.0000 0.0000 (  3065 PWs)   bands (ev):

   -12.0381 -11.0103  -3.7822  -3.4621  -2.6175  -1.9372  -1.1405  -0.9529

     occupation numbers 
     1.0000   1.0000   1.0000   1.0000   0.0000   0.0000   0.0000   0.0000

          k = 0.0000 0.0000 0.1500 (  3045 PWs)   bands (ev):

   -11.9519 -11.1050  -3.7371  -3.4429  -2.7444  -2.1053  -1.1253  -0.9648

     occupation numbers 
     1.0000   1.0000   1.0000   1.0000   0.0012   0.0000   0.0000   0.0000

          k = 0.0000 0.0000-0.3000 (  3026 PWs)   bands (ev):

   -11.8395 -11.2263  -3.6412  -3.4448  -2.9083  -2.2498  -1.1087  -0.9777

     occupation numbers 
     1.0000   1.0000   1.0000   1.0000   0.0920   0.0000   0.0000   0.0000

          k = 0.0000 0.1500 0.1500 (  3041 PWs)   bands (ev):

   -11.8736 -11.1784  -3.8592  -3.6364  -2.3506  -2.3260  -1.1127  -0.9742

     occupation numbers 
     1.0000   1.0000   1.0000   1.0000   0.0000   0.0000   0.0000   0.0000

          k = 0.0000 0.1500-0.3000 (  3016 PWs)   bands (ev):

   -11.7803 -11.2638  -4.0189  -3.7597  -2.4660  -2.0153  -1.0996  -0.9791

     occupation numbers 
     1.0000   1.0000   1.0000   1.0000   0.0000   0.0000   0.0000   0.0000

          k = 0.0000-0.3000-0.3000 (  3008 PWs)   bands (ev):

   -11.7073 -11.3152  -4.1461  -4.1095  -2.1688  -1.8502  -1.0895  -0.9820

     occupation numbers 
     1.0000   1.0000   1.0000   1.0000   0.0000   0.0000   0.0000   0.0000

          k = 0.2500 0.0000 0.0000 (  3021 PWs)   bands (ev):

   -11.5198 -10.6463  -3.3537  -3.0475  -2.9610  -2.4231  -2.3793  -1.7415

     occupation numbers 
     1.0000   1.0000   0.9995   0.5468   0.2174   0.0000   0.0000   0.0000

          k = 0.2500 0.0000 0.1500 (  3018 PWs)   bands (ev):

   -11.4477 -10.7189  -3.3734  -3.1250  -2.8575  -2.5930  -2.2934  -1.7972

     occupation numbers 
     1.0000   1.0000   0.9998   0.8220   0.0317   0.0000   0.0000   0.0000

          k = 0.2500 0.0000-0.3000 (  3024 PWs)   bands (ev):

   -11.3498 -10.8196  -3.3055  -3.2262  -2.7627  -2.6951  -2.2924  -1.9017

     occupation numbers 
     1.0000   1.0000   0.9974   0.9759   0.0022   0.0002   0.0000   0.0000

          k = 0.2500 0.1500 0.1500 (  3014 PWs)   bands (ev):

   -11.3820 -10.7766  -3.3719  -3.2980  -3.0003  -2.4030  -2.1850  -1.9092

     occupation numbers 
     1.0000   1.0000   0.9998   0.9967   0.3548   0.0000   0.0000   0.0000

          k = 0.2500 0.1500-0.3000 (  3030 PWs)   bands (ev):

   -11.3006 -10.8497  -3.5261  -3.3693  -2.9275  -2.4583  -2.2052  -1.7814

     occupation numbers 
     1.0000   1.0000   1.0000   0.9997   0.1292   0.0000   0.0000   0.0000

          k = 0.2500-0.3000-0.3000 (  3028 PWs)   bands (ev):

   -11.2369 -10.8945  -3.6463  -3.6169  -2.8543  -2.5084  -2.0534  -1.6424

     occupation numbers 
     1.0000   1.0000   1.0000   1.0000   0.0294   0.0000   0.0000   0.0000

          k =-0.5000 0.0000 0.0000 (  2996 PWs)   bands (ev):

   -10.7657 -10.2912  -4.4159  -3.9522  -2.6342  -2.5057  -2.1855  -1.7670

     occupation numbers 
     1.0000   1.0000   1.0000   1.0000   0.0000   0.0000   0.0000   0.0000

          k =-0.5000 0.0000 0.1500 (  3024 PWs)   bands (ev):

   -10.7223 -10.3206  -4.4123  -4.0407  -2.6040  -2.4840  -2.2010  -1.7890

     occupation numbers 
     1.0000   1.0000   1.0000   1.0000   0.0000   0.0000   0.0000   0.0000

          k =-0.5000 0.0000-0.3000 (  3036 PWs)   bands (ev):

   -10.6695 -10.3592  -4.3896  -4.1485  -2.5597  -2.4545  -2.2344  -1.8116

     occupation numbers 
     1.0000   1.0000   1.0000   1.0000   0.0000   0.0000   0.0000   0.0000

          k =-0.5000 0.1500 0.1500 (  3020 PWs)   bands (ev):

   -10.6829 -10.3446  -4.3814  -4.0920  -2.6938  -2.5265  -2.1237  -1.8114

     occupation numbers 
     1.0000   1.0000   1.0000   1.0000   0.0002   0.0000   0.0000   0.0000

          k =-0.5000 0.1500-0.3000 (  3020 PWs)   bands (ev):

   -10.6391 -10.3727  -4.3363  -4.1472  -2.7611  -2.5684  -2.1395  -1.7839

     occupation numbers 
     1.0000   1.0000   1.0000   1.0000   0.0021   0.0000   0.0000   0.0000

          k =-0.5000-0.3000-0.3000 (  3008 PWs)   bands (ev):

   -10.6035 -10.3914  -4.2762  -4.1527  -2.8409  -2.7399  -2.0995  -1.7656

     occupation numbers 
     1.0000   1.0000   1.0000   1.0000   0.0212   0.0010   0.0000   0.0000

          k = 0.0000 0.1500-0.1500 (  3041 PWs)   bands (ev):

   -11.8798 -11.1690  -4.0343  -3.3476  -2.8698  -1.8688  -1.1143  -0.9670

     occupation numbers 
     1.0000   1.0000   1.0000   0.9994   0.0418   0.0000   0.0000   0.0000

          k = 0.2500 0.0000-0.1500 (  3018 PWs)   bands (ev):

   -11.4431 -10.7255  -3.3424  -3.1182  -2.8180  -2.6404  -2.2941  -1.8408

     occupation numbers 
     1.0000   1.0000   0.9993   0.8029   0.0117   0.0000   0.0000   0.0000

          k =-0.2500 0.1500-0.1500 (  3014 PWs)   bands (ev):

   -11.3833 -10.7743  -3.5463  -3.0770  -2.9779  -2.4714  -2.3761  -1.6902

     occupation numbers 
     1.0000   1.0000   1.0000   0.6643   0.2724   0.0000   0.0000   0.0000

          k = 0.2500-0.1500-0.1500 (  3014 PWs)   bands (ev):

   -11.3740 -10.7870  -3.3761  -3.3244  -2.9341  -2.4352  -2.1787  -1.9043

     occupation numbers 
     1.0000   1.0000   0.9998   0.9986   0.1443   0.0000   0.0000   0.0000

          k =-0.2500 0.1500 0.3000 (  3030 PWs)   bands (ev):

   -11.2973 -10.8533  -3.5596  -3.3773  -2.8948  -2.4773  -2.1952  -1.7343

     occupation numbers 
     1.0000   1.0000   1.0000   0.9998   0.0708   0.0000   0.0000   0.0000

          k = 0.5000 0.1500-0.1500 (  3020 PWs)   bands (ev):

   -10.6860 -10.3412  -4.3780  -4.0807  -2.7725  -2.3892  -2.2490  -1.7701

     occupation numbers 
     1.0000   1.0000   1.0000   1.0000   0.0031   0.0000   0.0000   0.0000

     the Fermi energy is    -3.0362 ev

!    total energy              =     -21.67708600 Ry
     estimated scf accuracy    <       0.00000039 Ry
     smearing contrib. (-TS)   =      -0.00230261 Ry
     internal energy E=F+TS    =     -21.67478339 Ry

     The total energy is F=E-TS. E is the sum of the following terms:
     one-electron contribution =      -7.46237853 Ry
     hartree contribution      =       5.11042913 Ry
     xc contribution           =      -5.42576767 Ry
     ewald contribution        =     -13.89706632 Ry

     convergence has been achieved in   6 iterations

     Forces acting on atoms (cartesian axes, Ry/au):

     atom    1 type  1   force =    -0.00721492    0.03573497    0.03573497
     atom    2 type  1   force =     0.00721492   -0.03573497   -0.03573497
     The non-local contrib.  to forces
     atom    1 type  1   force =    -0.04549182    0.17068445    0.17068445
     atom    2 type  1   force =     0.04551265   -0.17083782   -0.17083782
     The ionic contribution  to forces
     atom    1 type  1   force =     0.04062555   -0.40150242   -0.40150242
     atom    2 type  1   force =    -0.04062555    0.40150242    0.40150242
     The local contribution  to forces
     atom    1 type  1   force =    -0.00234773    0.26631031    0.26631031
     atom    2 type  1   force =     0.00235551   -0.26616681   -0.26616681
     The core correction contribution to forces
     atom    1 type  1   force =     0.00000000    0.00000000    0.00000000
     atom    2 type  1   force =     0.00000000    0.00000000    0.00000000
     The Hubbard contrib.    to forces
     atom    1 type  1   force =     0.00000000    0.00000000    0.00000000
     atom    2 type  1   force =     0.00000000    0.00000000    0.00000000
     The SCF correction term to forces
     atom    1 type  1   force =     0.00000262    0.00021575    0.00021575
     atom    2 type  1   force =    -0.00002416   -0.00025964   -0.00025964

     Total force =     0.072195     Total SCF correction =     0.000478


     Computing stress (Cartesian axis) and pressure

          total   stress  (Ry/bohr**3)                   (kbar)     P=     -106.87
  -0.00106556   0.00004500   0.00004500         -156.75        6.62        6.62
   0.00004500  -0.00055696  -0.00015426            6.62      -81.93      -22.69
   0.00004500  -0.00015426  -0.00055696            6.62      -22.69      -81.93

     kinetic stress (kbar)   2128.82    -41.67    -41.67
                              -41.67   2282.70     58.90
                              -41.67     58.90   2282.70

     local   stress (kbar)  -2609.37     84.86     84.86
                               84.86  -1149.74   -362.02
                               84.86   -362.02  -1149.74

     nonloc. stress (kbar)    643.95      9.77      9.77
                                9.77    624.81    -15.71
                                9.77    -15.71    624.81

     hartree stress (kbar)    880.21    -19.16    -19.16
                              -19.16    302.57    120.16
                              -19.16    120.16    302.57

     exc-cor stress (kbar)   -481.91      0.00      0.00
                                0.00   -481.91      0.00
                                0.00      0.00   -481.91

     corecor stress (kbar)      0.00      0.00      0.00
                                0.00      0.00      0.00
                                0.00      0.00      0.00

     ewald   stress (kbar)   -718.45    -27.19    -27.19
                              -27.19  -1660.37    175.98
                              -27.19    175.98  -1660.37

     hubbard stress (kbar)      0.00      0.00      0.00
                                0.00      0.00      0.00
                                0.00      0.00      0.00

     DFT-D   stress (kbar)      0.00      0.00      0.00
                                0.00      0.00      0.00
                                0.00      0.00      0.00

     XDM     stress (kbar)      0.00      0.00      0.00
                                0.00      0.00      0.00
                                0.00      0.00      0.00

     dft-nl  stress (kbar)      0.00      0.00      0.00
                                0.00      0.00      0.00
                                0.00      0.00      0.00

     TS-vdW  stress (kbar)      0.00      0.00      0.00
                                0.00      0.00      0.00
                                0.00      0.00      0.00

     MDB     stress (kbar)      0.00      0.00      0.00
                                0.00      0.00      0.00
                                0.00      0.00      0.00

     3D-RISM stress (kbar)      0.00      0.00      0.00
                                0.00      0.00      0.00
                                0.00      0.00      0.00


     Writing all to output data dir /app/simulations/sim_20250728_003245_Carbon/out/Carbon.save/ :
     XML data file, charge density, pseudopotentials, collected wavefunctions

     init_run     :      3.01s CPU      2.34s WALL (       1 calls)
     electrons    :     28.28s CPU     24.36s WALL (       1 calls)
     forces       :      0.12s CPU      0.10s WALL (       1 calls)
     stress       :      0.56s CPU      0.37s WALL (       1 calls)

     Called by init_run:
     wfcinit      :      2.82s CPU      2.12s WALL (       1 calls)
     wfcinit:atom :      0.05s CPU      0.03s WALL (      24 calls)
     wfcinit:wfcr :      2.55s CPU      1.97s WALL (      24 calls)
     potinit      :      0.01s CPU      0.02s WALL (       1 calls)
     hinit0       :      0.16s CPU      0.16s WALL (       1 calls)

     Called by electrons:
     c_bands      :     26.67s CPU     23.01s WALL (       7 calls)
     sum_band     :      1.50s CPU      1.12s WALL (       7 calls)
     v_of_rho     :      0.03s CPU      0.04s WALL (       7 calls)
     v_h          :      0.01s CPU      0.01s WALL (       7 calls)
     v_xc         :      0.02s CPU      0.03s WALL (       7 calls)
     mix_rho      :      0.05s CPU      0.12s WALL (       7 calls)

     Called by c_bands:
     init_us_2    :      0.41s CPU      0.29s WALL (     408 calls)
     cegterg      :     23.81s CPU     20.06s WALL (     168 calls)

     Called by sum_band:
     sum_band:wei :      0.00s CPU      0.00s WALL (       7 calls)
     sum_band:loo :      1.45s CPU      1.07s WALL (       7 calls)
     sum_band:buf :      0.04s CPU      0.02s WALL (     168 calls)
     sum_band:ini :      0.12s CPU      0.10s WALL (     168 calls)

     Called by *egterg:
     cdiaghg      :      0.16s CPU      0.13s WALL (     377 calls)
     cegterg:over :      3.49s CPU      3.52s WALL (     233 calls)
     cegterg:upda :      2.90s CPU      2.76s WALL (     233 calls)
     cegterg:last :      1.52s CPU      1.39s WALL (     232 calls)
     h_psi        :     16.32s CPU     12.36s WALL (     425 calls)
     g_psi        :      0.09s CPU      0.06s WALL (     233 calls)

     Called by h_psi:
     h_psi:calbec :      3.16s CPU      3.25s WALL (     425 calls)
     vloc_psi     :     10.62s CPU      6.44s WALL (     425 calls)
                                        0.00s GPU  (     425 calls)
     add_vuspsi   :      2.18s CPU      2.10s WALL (     425 calls)

     General routines
     calbec       :      3.37s CPU      3.44s WALL (     833 calls)
     fft          :      0.14s CPU      0.13s WALL (      26 calls)
     ffts         :      0.02s CPU      0.02s WALL (       7 calls)
     fftw         :     10.12s CPU      6.24s WALL (    7952 calls)

     Parallel routines

     PWSCF        :     32.09s CPU     27.76s WALL


   This run was terminated on:   0:33:16  28Jul2025            

=------------------------------------------------------------------------------=
   JOB DONE.
=------------------------------------------------------------------------------=
