
     Program PWSCF v.7.4.1 starts on 28Jul2025 at  0:17:24 
        Git branch: develop
        Last git commit: c6fcc3932752aa8349da082e54d44ca9a418c6ff-dirty
        Last git commit date: Fri Jul 25 12:05:43 2025 -0500
        Last git commit subject: Sanity Checks

     This program is part of the open-source Quantum ESPRESSO suite
     for quantum simulation of materials; please cite
         "P. Giannozzi et al., J. Phys.:Condens. Matter 21 395502 (2009);
         "P. Giannozzi et al., J. Phys.:Condens. Matter 29 465901 (2017);
         "P. Giannozzi et al., J. Chem. Phys. 152 154105 (2020);
          URL http://www.quantum-espresso.org", 
     in publications or presentations arising from this work. More details at
     http://www.quantum-espresso.org/quote

     Parallel version (MPI), running on     1 processors

     MPI processes distributed on     1 nodes
     2384 MiB available memory on the printing compute node when the environment starts

     Reading input from /app/simulations/sim_20250728_001721_CC/CC.in

     Current dimensions of program PWSCF are:
     Max number of different atomic species (ntypx) = 10
     Max number of k-points (npk) =  40000
     Max angular momentum in pseudopotentials (lmaxx) =  4
     file C_3.98148.UPF: wavefunction(s)  3d renormalized

     ============================================================
     AUTOMATED PARAMETER OPTIMIZATION
     ============================================================


     Testing cutoff convergence...
     Target accuracy:  1.0000E-04 Ry
     Ecutwfc =   30.0 Ry, Energy =   -13.14492985 Ry
     Ecutwfc =   40.0 Ry, Energy =   -13.64061007 Ry, Delta =  4.9568E-01
     Ecutwfc =   50.0 Ry, Energy =   -14.04886517 Ry, Delta =  4.0826E-01
     Ecutwfc =   60.0 Ry, Energy =   -14.38233375 Ry, Delta =  3.3347E-01
     Ecutwfc =   70.0 Ry, Energy =   -14.65424129 Ry, Delta =  2.7191E-01
     Ecutwfc =   80.0 Ry, Energy =   -14.87951130 Ry, Delta =  2.2527E-01
     Ecutwfc =   90.0 Ry, Energy =   -15.06061156 Ry, Delta =  1.8110E-01
     Ecutwfc =  100.0 Ry, Energy =   -15.21182995 Ry, Delta =  1.5122E-01
     Ecutwfc =  110.0 Ry, Energy =   -15.33402845 Ry, Delta =  1.2220E-01
     Ecutwfc =  120.0 Ry, Energy =   -15.43382962 Ry, Delta =  9.9801E-02

     WARNING: Cutoff convergence not achieved
     Consider increasing cutoff_max or decreasing target_accuracy

     ============================================================


     Using optimized cutoffs:
     ecutwfc =   30.0 Ry, ecutrho =  120.0 Ry
     Message from routine setup:
     using ibrav=0 with symmetry is DISCOURAGED, use correct ibrav instead

     Configuration saved to: /root/.qe/config.ini

     Subspace diagonalization in iterative solution of the eigenvalue problem:
     a serial algorithm will be used


     G-vector sticks info
     --------------------
     sticks:   dense  smooth     PW     G-vecs:    dense   smooth      PW
     Sum         163     163     55                14849    14849    2817

     Using Slab Decomposition



     bravais-lattice index     =            0
     lattice parameter (alat)  =       4.5353  a.u.
     unit-cell volume          =     673.2552 (a.u.)^3
     number of atoms/cell      =            2
     number of atomic types    =            1
     number of electrons       =         7.96
     number of Kohn-Sham states=            8
     kinetic-energy cutoff     =      30.0000  Ry
     charge density cutoff     =     120.0000  Ry
     scf convergence threshold =      1.0E-06
     mixing beta               =       0.7000
     number of iterations used =            8  plain     mixing
     Exchange-correlation=  SLA  PZ   NOGX NOGC
                           (   1   1   0   0   0   0   0)

     celldm(1)=   4.535343  celldm(2)=   0.000000  celldm(3)=   0.000000
     celldm(4)=   0.000000  celldm(5)=   0.000000  celldm(6)=   0.000000

     crystal axes: (cart. coord. in units of alat)
               a(1) = (   1.000000   0.000000   0.000000 )  
               a(2) = (  -0.500000   0.866025   0.000000 )  
               a(3) = (   0.000000   0.000000   8.333333 )  

     reciprocal axes: (cart. coord. in units 2 pi/alat)
               b(1) = (  1.000000  0.577350 -0.000000 )  
               b(2) = (  0.000000  1.154701  0.000000 )  
               b(3) = (  0.000000 -0.000000  0.120000 )  


     PseudoPot. # 1 for C  read from file:
     /opt/qe/pseudo/C_3.98148.UPF
     MD5 check sum: 65c7b08075d3a1a132e7e999f2747431
     Pseudo is Norm-conserving, Zval =  4.0
     Generated by new atomic code, or converted to UPF format
     Using radial grid of  461 points,  2 beta functions with: 
                l(1) =   0
                l(2) =   1

     atomic species   valence    mass     pseudopotential
     C                 3.98    12.01100     C ( 1.00)

      4 Sym. Ops. (no inversion) found


                                    s                        frac. trans.

      isym =  1     identity                                     

 cryst.   s( 1) = (     1          0          0      )
                  (     0          1          0      )
                  (     0          0          1      )

 cart.    s( 1) = (  1.0000000  0.0000000  0.0000000 )
                  (  0.0000000  1.0000000  0.0000000 )
                  (  0.0000000  0.0000000  1.0000000 )


      isym =  2     180 deg rotation - cryst. axis [1,-1,0]      

 cryst.   s( 2) = (     0         -1          0      )
                  (    -1          0          0      )
                  (     0          0         -1      )

 cart.    s( 2) = (  0.5000000 -0.8660254  0.0000000 )
                  ( -0.8660254 -0.5000000  0.0000000 )
                  (  0.0000000  0.0000000 -1.0000000 )


      isym =  3     inv. 180 deg rotation - cart. axis [0,0,1]   

 cryst.   s( 3) = (     1          0          0      )
                  (     0          1          0      )
                  (     0          0         -1      )

 cart.    s( 3) = (  1.0000000  0.0000000  0.0000000 )
                  (  0.0000000  1.0000000  0.0000000 )
                  (  0.0000000  0.0000000 -1.0000000 )


      isym =  4     inv. 180 deg rotation - cryst. axis [1,1,0]  

 cryst.   s( 4) = (     0         -1          0      )
                  (    -1          0          0      )
                  (     0          0          1      )

 cart.    s( 4) = (  0.5000000 -0.8660254  0.0000000 )
                  ( -0.8660254 -0.5000000  0.0000000 )
                  (  0.0000000  0.0000000  1.0000000 )


   Cartesian axes

     site n.     atom                  positions (alat units)
         1        C      tau(   1) = (   0.0000000   0.0000000   4.1666667  )
         2        C      tau(   2) = (  -0.0005000   0.5776389   4.1666667  )

   Crystallographic axes

     site n.     atom                  positions (cryst. coord.)
         1        C      tau(   1) = (  0.0000000  0.0000000  0.5000000  )
         2        C      tau(   2) = (  0.3330000  0.6670000  0.5000000  )

     number of k points=    21  Gaussian smearing, width (Ry)=  0.0100
                       cart. coord. in units 2pi/alat
        k(    1) = (   0.0000000   0.0000000   0.0000000), wk =   0.0312500
        k(    2) = (   0.0000000   0.0000000   0.0300000), wk =   0.0625000
        k(    3) = (   0.0000000   0.0000000  -0.0600000), wk =   0.0312500
        k(    4) = (   0.0000000   0.2886751   0.0000000), wk =   0.1250000
        k(    5) = (   0.0000000   0.2886751   0.0300000), wk =   0.2500000
        k(    6) = (   0.0000000   0.2886751  -0.0600000), wk =   0.1250000
        k(    7) = (   0.0000000  -0.5773503   0.0000000), wk =   0.0625000
        k(    8) = (   0.0000000  -0.5773503   0.0300000), wk =   0.1250000
        k(    9) = (   0.0000000  -0.5773503  -0.0600000), wk =   0.0625000
        k(   10) = (   0.2500000   0.4330127   0.0000000), wk =   0.0625000
        k(   11) = (   0.2500000   0.4330127   0.0300000), wk =   0.1250000
        k(   12) = (   0.2500000   0.4330127  -0.0600000), wk =   0.0625000
        k(   13) = (  -0.2500000   0.1443376   0.0000000), wk =   0.0625000
        k(   14) = (  -0.2500000   0.1443376   0.0300000), wk =   0.1250000
        k(   15) = (  -0.2500000   0.1443376  -0.0600000), wk =   0.0625000
        k(   16) = (   0.5000000  -0.2886751   0.0000000), wk =   0.0312500
        k(   17) = (   0.5000000  -0.2886751   0.0300000), wk =   0.0625000
        k(   18) = (   0.5000000  -0.2886751  -0.0600000), wk =   0.0312500
        k(   19) = (  -0.2500000   0.4330127   0.0000000), wk =   0.1250000
        k(   20) = (  -0.2500000   0.4330127   0.0300000), wk =   0.2500000
        k(   21) = (  -0.2500000   0.4330127  -0.0600000), wk =   0.1250000

                       cryst. coord.
        k(    1) = (   0.0000000   0.0000000   0.0000000), wk =   0.0312500
        k(    2) = (   0.0000000   0.0000000   0.2500000), wk =   0.0625000
        k(    3) = (   0.0000000   0.0000000  -0.5000000), wk =   0.0312500
        k(    4) = (   0.0000000   0.2500000   0.0000000), wk =   0.1250000
        k(    5) = (   0.0000000   0.2500000   0.2500000), wk =   0.2500000
        k(    6) = (   0.0000000   0.2500000  -0.5000000), wk =   0.1250000
        k(    7) = (   0.0000000  -0.5000000   0.0000000), wk =   0.0625000
        k(    8) = (   0.0000000  -0.5000000   0.2500000), wk =   0.1250000
        k(    9) = (   0.0000000  -0.5000000  -0.5000000), wk =   0.0625000
        k(   10) = (   0.2500000   0.2500000   0.0000000), wk =   0.0625000
        k(   11) = (   0.2500000   0.2500000   0.2500000), wk =   0.1250000
        k(   12) = (   0.2500000   0.2500000  -0.5000000), wk =   0.0625000
        k(   13) = (  -0.2500000   0.2500000   0.0000000), wk =   0.0625000
        k(   14) = (  -0.2500000   0.2500000   0.2500000), wk =   0.1250000
        k(   15) = (  -0.2500000   0.2500000  -0.5000000), wk =   0.0625000
        k(   16) = (   0.5000000  -0.5000000   0.0000000), wk =   0.0312500
        k(   17) = (   0.5000000  -0.5000000   0.2500000), wk =   0.0625000
        k(   18) = (   0.5000000  -0.5000000  -0.5000000), wk =   0.0312500
        k(   19) = (  -0.2500000   0.5000000   0.0000000), wk =   0.1250000
        k(   20) = (  -0.2500000   0.5000000   0.2500000), wk =   0.2500000
        k(   21) = (  -0.2500000   0.5000000  -0.5000000), wk =   0.1250000

     Dense  grid:    14849 G-vectors     FFT dimensions: (  15,  15, 135)

     Dynamical RAM for                 wfc:       0.23 MB

     Dynamical RAM for     wfc (w. buffer):       5.02 MB

     Dynamical RAM for           str. fact:       0.23 MB

     Dynamical RAM for           local pot:       0.00 MB

     Dynamical RAM for          nlocal pot:       0.23 MB

     Dynamical RAM for                qrad:       0.08 MB

     Dynamical RAM for          rho,v,vnew:       1.37 MB

     Dynamical RAM for               rhoin:       0.46 MB

     Dynamical RAM for            rho*nmix:       3.63 MB

     Dynamical RAM for           G-vectors:       0.96 MB

     Dynamical RAM for          h,s,v(r/c):       0.01 MB

     Dynamical RAM for          <psi|beta>:       0.00 MB

     Dynamical RAM for                 psi:       0.46 MB

     Dynamical RAM for                hpsi:       0.46 MB

     Dynamical RAM for      wfcinit/wfcrot:       0.46 MB

     Estimated static dynamical RAM per process >       9.95 MB

     Estimated max dynamical RAM per process >      14.50 MB

     Initial potential from superposition of free atoms

     starting charge       7.9629, renormalised to       7.9630

     negative rho (up, down):  5.837E-05 0.000E+00
     Starting wfcs are   18 randomized atomic wfcs

     total cpu time spent up to now is        0.9 secs

     per-process dynamical memory:    17.2 Mb

     Self-consistent Calculation

     iteration #  1     ecut=    30.00 Ry     beta= 0.70
     Davidson diagonalization with overlap

---- Real-time Memory Report at c_bands before calling an iterative solver
            69 MiB given to the printing process from OS
            17 MiB allocation reported by mallinfo(arena+hblkhd)
          2369 MiB available memory on the node where the printing process lives
------------------
     ethr =  1.00E-02,  avg # of iterations =  6.7

     negative rho (up, down):  1.647E-06 0.000E+00

     total cpu time spent up to now is        2.8 secs

     total energy              =     -22.54437809 Ry
     estimated scf accuracy    <       0.25452330 Ry

     iteration #  2     ecut=    30.00 Ry     beta= 0.70
     Davidson diagonalization with overlap

---- Real-time Memory Report at c_bands before calling an iterative solver
            69 MiB given to the printing process from OS
            21 MiB allocation reported by mallinfo(arena+hblkhd)
          2365 MiB available memory on the node where the printing process lives
------------------
     ethr =  3.20E-03,  avg # of iterations =  2.7

     negative rho (up, down):  2.426E-08 0.000E+00

     total cpu time spent up to now is        3.8 secs

     total energy              =     -22.58256618 Ry
     estimated scf accuracy    <       0.00280613 Ry

     iteration #  3     ecut=    30.00 Ry     beta= 0.70
     Davidson diagonalization with overlap

---- Real-time Memory Report at c_bands before calling an iterative solver
            69 MiB given to the printing process from OS
            22 MiB allocation reported by mallinfo(arena+hblkhd)
          2364 MiB available memory on the node where the printing process lives
------------------
     ethr =  3.52E-05,  avg # of iterations =  9.9

     total cpu time spent up to now is        5.9 secs

     total energy              =     -22.58295171 Ry
     estimated scf accuracy    <       0.00017601 Ry

     iteration #  4     ecut=    30.00 Ry     beta= 0.70
     Davidson diagonalization with overlap

---- Real-time Memory Report at c_bands before calling an iterative solver
            69 MiB given to the printing process from OS
            22 MiB allocation reported by mallinfo(arena+hblkhd)
          2364 MiB available memory on the node where the printing process lives
------------------
     ethr =  2.21E-06,  avg # of iterations =  3.9

     total cpu time spent up to now is        6.8 secs

     total energy              =     -22.58296069 Ry
     estimated scf accuracy    <       0.00000153 Ry

     iteration #  5     ecut=    30.00 Ry     beta= 0.70
     Davidson diagonalization with overlap

---- Real-time Memory Report at c_bands before calling an iterative solver
            69 MiB given to the printing process from OS
            23 MiB allocation reported by mallinfo(arena+hblkhd)
          2364 MiB available memory on the node where the printing process lives
------------------
     ethr =  1.92E-08,  avg # of iterations =  3.0

     total cpu time spent up to now is        7.7 secs

     End of self-consistent calculation

          k = 0.0000 0.0000 0.0000 (  1781 PWs)   bands (ev):

   -22.2359 -10.4979  -5.3231  -5.2785   0.7843   1.7118   1.9490   2.8834

     occupation numbers 
     1.0000   1.0000   1.0000   1.0000   0.0000   0.0000   0.0000   0.0000

          k = 0.0000 0.0000 0.0300 (  1800 PWs)   bands (ev):

   -22.2359 -10.5017  -5.3308  -5.2862   0.7852   1.6648   2.0555   2.6817

     occupation numbers 
     1.0000   1.0000   1.0000   1.0000   0.0000   0.0000   0.0000   0.0000

          k = 0.0000 0.0000-0.0600 (  1806 PWs)   bands (ev):

   -22.2359 -10.4992  -5.3335  -5.2889   0.7862   1.6330   2.1891   2.4957

     occupation numbers 
     1.0000   1.0000   1.0000   1.0000   0.0000   0.0000   0.0000   0.0000

          k = 0.0000 0.2887 0.0000 (  1851 PWs)   bands (ev):

   -20.6976  -9.7547  -8.6492  -7.4814   2.8820   3.8370   4.1184   4.9935

     occupation numbers 
     1.0000   1.0000   1.0000   1.0000   0.0000   0.0000   0.0000   0.0000

          k = 0.0000 0.2887 0.0300 (  1852 PWs)   bands (ev):

   -20.6976  -9.7549  -8.6493  -7.4822   2.8827   3.8008   4.2105   4.8196

     occupation numbers 
     1.0000   1.0000   1.0000   1.0000   0.0000   0.0000   0.0000   0.0000

          k = 0.0000 0.2887-0.0600 (  1842 PWs)   bands (ev):

   -20.6974  -9.7516  -8.6483  -7.4788   2.8835   3.7741   4.3280   4.6527

     occupation numbers 
     1.0000   1.0000   1.0000   1.0000   0.0000   0.0000   0.0000   0.0000

          k = 0.0000-0.5774 0.0000 (  1886 PWs)   bands (ev):

   -16.5561 -15.9491  -8.9557  -4.8133  -0.6176   5.9570   9.0499   9.1375

     occupation numbers 
     1.0000   1.0000   1.0000   0.9193   0.0000   0.0000   0.0000   0.0000

          k = 0.0000-0.5774 0.0300 (  1876 PWs)   bands (ev):

   -16.5558 -15.9472  -8.9533  -4.8077  -0.6186   5.9576   9.0502   9.1382

     occupation numbers 
     1.0000   1.0000   1.0000   0.9101   0.0000   0.0000   0.0000   0.0000

          k = 0.0000-0.5774-0.0600 (  1868 PWs)   bands (ev):

   -16.5565 -15.9459  -8.9471  -4.8035  -0.6156   5.9581   9.0500   9.1387

     occupation numbers 
     1.0000   1.0000   1.0000   0.9029   0.0000   0.0000   0.0000   0.0000

          k = 0.2500 0.4330 0.0000 (  1896 PWs)   bands (ev):

   -17.7362 -12.8014 -11.6650  -5.2498   0.7494   7.0362   7.8085   8.4564

     occupation numbers 
     1.0000   1.0000   1.0000   1.0000   0.0000   0.0000   0.0000   0.0000

          k = 0.2500 0.4330 0.0300 (  1894 PWs)   bands (ev):

   -17.7359 -12.8019 -11.6632  -5.2497   0.7540   7.0366   7.8031   8.4845

     occupation numbers 
     1.0000   1.0000   1.0000   1.0000   0.0000   0.0000   0.0000   0.0000

          k = 0.2500 0.4330-0.0600 (  1896 PWs)   bands (ev):

   -17.7360 -12.8037 -11.6658  -5.2481   0.7542   7.0369   7.7982   8.5166

     occupation numbers 
     1.0000   1.0000   1.0000   1.0000   0.0000   0.0000   0.0000   0.0000

          k =-0.2500 0.1443 0.0000 (  1851 PWs)   bands (ev):

   -20.6983  -9.7701  -8.6476  -7.4611   2.8821   3.8375   4.1183   4.9942

     occupation numbers 
     1.0000   1.0000   1.0000   1.0000   0.0000   0.0000   0.0000   0.0000

          k =-0.2500 0.1443 0.0300 (  1852 PWs)   bands (ev):

   -20.6982  -9.7704  -8.6477  -7.4619   2.8828   3.8012   4.2106   4.8197

     occupation numbers 
     1.0000   1.0000   1.0000   1.0000   0.0000   0.0000   0.0000   0.0000

          k =-0.2500 0.1443-0.0600 (  1842 PWs)   bands (ev):

   -20.6980  -9.7671  -8.6467  -7.4586   2.8836   3.7745   4.3283   4.6528

     occupation numbers 
     1.0000   1.0000   1.0000   1.0000   0.0000   0.0000   0.0000   0.0000

          k = 0.5000-0.2887 0.0000 (  1886 PWs)   bands (ev):

   -16.5502 -15.9642  -8.9406  -4.7982  -0.6418   5.9619   9.0511   9.1344

     occupation numbers 
     1.0000   1.0000   1.0000   0.8931   0.0000   0.0000   0.0000   0.0000

          k = 0.5000-0.2887 0.0300 (  1876 PWs)   bands (ev):

   -16.5499 -15.9622  -8.9382  -4.7926  -0.6428   5.9625   9.0516   9.1351

     occupation numbers 
     1.0000   1.0000   1.0000   0.8819   0.0000   0.0000   0.0000   0.0000

          k = 0.5000-0.2887-0.0600 (  1868 PWs)   bands (ev):

   -16.5506 -15.9610  -8.9321  -4.7884  -0.6398   5.9629   9.0513   9.1356

     occupation numbers 
     1.0000   1.0000   1.0000   0.8732   0.0000   0.0000   0.0000   0.0000

          k =-0.2500 0.4330 0.0000 (  1896 PWs)   bands (ev):

   -17.7377 -12.8147 -11.6489  -5.2442   0.7364   7.0362   7.8119   8.4565

     occupation numbers 
     1.0000   1.0000   1.0000   1.0000   0.0000   0.0000   0.0000   0.0000

          k =-0.2500 0.4330 0.0300 (  1894 PWs)   bands (ev):

   -17.7373 -12.8152 -11.6472  -5.2440   0.7410   7.0366   7.8064   8.4849

     occupation numbers 
     1.0000   1.0000   1.0000   1.0000   0.0000   0.0000   0.0000   0.0000

          k =-0.2500 0.4330-0.0600 (  1896 PWs)   bands (ev):

   -17.7374 -12.8170 -11.6497  -5.2424   0.7412   7.0369   7.8014   8.5174

     occupation numbers 
     1.0000   1.0000   1.0000   1.0000   0.0000   0.0000   0.0000   0.0000

     the Fermi energy is    -4.6786 ev

!    total energy              =     -22.58296194 Ry
     estimated scf accuracy    <       0.00000003 Ry
     smearing contrib. (-TS)   =      -0.00045958 Ry
     internal energy E=F+TS    =     -22.58250237 Ry

     The total energy is F=E-TS. E is the sum of the following terms:
     one-electron contribution =    -234.76499205 Ry
     hartree contribution      =     118.54155138 Ry
     xc contribution           =      -7.00625225 Ry
     ewald contribution        =     100.64719055 Ry

     convergence has been achieved in   5 iterations

     Forces acting on atoms (cartesian axes, Ry/au):

     atom    1 type  1   force =    -0.00238856    0.00137904    0.00000000
     atom    2 type  1   force =     0.00238856   -0.00137904    0.00000000
     The non-local contrib.  to forces
     atom    1 type  1   force =    -0.00213466    0.00123245    0.00000000
     atom    2 type  1   force =     0.00214073   -0.00123595    0.00000000
     The ionic contribution  to forces
     atom    1 type  1   force =    -0.00894224    0.00516283    0.00000000
     atom    2 type  1   force =     0.00894224   -0.00516283    0.00000000
     The local contribution  to forces
     atom    1 type  1   force =     0.00868883   -0.00501650    0.00000000
     atom    2 type  1   force =    -0.00869009    0.00501721    0.00000000
     The core correction contribution to forces
     atom    1 type  1   force =     0.00000000    0.00000000    0.00000000
     atom    2 type  1   force =     0.00000000    0.00000000    0.00000000
     The Hubbard contrib.    to forces
     atom    1 type  1   force =     0.00000000    0.00000000    0.00000000
     atom    2 type  1   force =     0.00000000    0.00000000    0.00000000
     The SCF correction term to forces
     atom    1 type  1   force =     0.00000157   -0.00000090    0.00000000
     atom    2 type  1   force =    -0.00000231    0.00000133    0.00000000

     Total force =     0.003901     Total SCF correction =     0.000003


     Computing stress (Cartesian axis) and pressure

          total   stress  (Ry/bohr**3)                   (kbar)     P=      -21.63
  -0.00006522   0.00000015   0.00000000           -9.59        0.02        0.00
   0.00000015  -0.00006505   0.00000000            0.02       -9.57        0.00
   0.00000000   0.00000000  -0.00031081            0.00        0.00      -45.72

     kinetic stress (kbar)   2310.05      0.86      0.00
                                0.86   2311.04      0.00
                                0.00      0.00   2503.83

     local   stress (kbar) -53867.05      4.22     -0.00
                                4.22 -53862.17     -0.00
                               -0.00     -0.00  54363.63

     nonloc. stress (kbar)   -106.38     -0.05      0.00
                               -0.05   -106.44      0.00
                                0.00      0.00    -90.92

     hartree stress (kbar)  25735.31     -0.59     -0.00
                               -0.59  25734.64      0.00
                               -0.00      0.00 -25568.83

     exc-cor stress (kbar)   -470.95      0.00      0.00
                                0.00   -470.95      0.00
                                0.00      0.00   -470.95

     corecor stress (kbar)      0.00      0.00      0.00
                                0.00      0.00      0.00
                                0.00      0.00      0.00

     ewald   stress (kbar)  26389.41     -4.42      0.00
                               -4.42  26384.31      0.00
                                0.00      0.00 -30782.48

     hubbard stress (kbar)      0.00      0.00      0.00
                                0.00      0.00      0.00
                                0.00      0.00      0.00

     DFT-D   stress (kbar)      0.00      0.00      0.00
                                0.00      0.00      0.00
                                0.00      0.00      0.00

     XDM     stress (kbar)      0.00      0.00      0.00
                                0.00      0.00      0.00
                                0.00      0.00      0.00

     dft-nl  stress (kbar)      0.00      0.00      0.00
                                0.00      0.00      0.00
                                0.00      0.00      0.00

     TS-vdW  stress (kbar)      0.00      0.00      0.00
                                0.00      0.00      0.00
                                0.00      0.00      0.00

     MDB     stress (kbar)      0.00      0.00      0.00
                                0.00      0.00      0.00
                                0.00      0.00      0.00

     3D-RISM stress (kbar)      0.00      0.00      0.00
                                0.00      0.00      0.00
                                0.00      0.00      0.00


     Writing all to output data dir /app/simulations/sim_20250728_001721_CC/out/CC.save/ :
     XML data file, charge density, pseudopotentials, collected wavefunctions

     ==================================================
     AUTO_OPTIMIZE SUMMARY:
     Using ecutwfc =   30.0 Ry, ecutrho =  120.0 Ry
     ==================================================


     init_run     :      0.90s CPU      0.72s WALL (       1 calls)
     electrons    :      9.83s CPU      6.85s WALL (       1 calls)
     forces       :      0.07s CPU      0.04s WALL (       1 calls)
     stress       :      0.26s CPU      0.18s WALL (       1 calls)

     Called by init_run:
     wfcinit      :      0.74s CPU      0.50s WALL (       1 calls)
     wfcinit:atom :      0.03s CPU      0.02s WALL (      21 calls)
     wfcinit:wfcr :      0.60s CPU      0.42s WALL (      21 calls)
     potinit      :      0.01s CPU      0.02s WALL (       1 calls)
     hinit0       :      0.14s CPU      0.17s WALL (       1 calls)

     Called by electrons:
     c_bands      :      8.98s CPU      6.36s WALL (       5 calls)
     sum_band     :      0.74s CPU      0.37s WALL (       5 calls)
     v_of_rho     :      0.04s CPU      0.02s WALL (       6 calls)
     v_h          :      0.01s CPU      0.01s WALL (       6 calls)
     v_xc         :      0.03s CPU      0.02s WALL (       6 calls)
     mix_rho      :      0.03s CPU      0.03s WALL (       5 calls)

     Called by c_bands:
     init_us_2    :      0.23s CPU      0.13s WALL (     273 calls)
     cegterg      :      8.35s CPU      5.81s WALL (     105 calls)

     Called by sum_band:
     sum_band:wei :      0.00s CPU      0.00s WALL (       5 calls)
     sum_band:loo :      0.71s CPU      0.35s WALL (       5 calls)
     sum_band:buf :      0.01s CPU      0.01s WALL (     105 calls)
     sum_band:ini :      0.10s CPU      0.05s WALL (     105 calls)

     Called by *egterg:
     cdiaghg      :      0.29s CPU      0.17s WALL (     652 calls)
     cegterg:over :      1.06s CPU      0.85s WALL (     547 calls)
     cegterg:upda :      0.83s CPU      0.65s WALL (     547 calls)
     cegterg:last :      0.67s CPU      0.56s WALL (     303 calls)
     h_psi        :      5.68s CPU      3.64s WALL (     673 calls)
     g_psi        :      0.05s CPU      0.03s WALL (     547 calls)

     Called by h_psi:
     h_psi:calbec :      0.83s CPU      0.73s WALL (     673 calls)
     vloc_psi     :      4.32s CPU      2.45s WALL (     673 calls)
                                        0.00s GPU  (     673 calls)
     add_vuspsi   :      0.46s CPU      0.42s WALL (     673 calls)

     General routines
     calbec       :      0.90s CPU      0.77s WALL (    1030 calls)
     fft          :      0.15s CPU      0.15s WALL (      22 calls)
     ffts         :      0.00s CPU      0.00s WALL (       5 calls)
     fftw         :      3.96s CPU      2.18s WALL (    7158 calls)

     Parallel routines

     PWSCF        :     11.12s CPU      8.27s WALL


   This run was terminated on:   0:17:32  28Jul2025            

=------------------------------------------------------------------------------=
   JOB DONE.
=------------------------------------------------------------------------------=
